&inputpp 
   outdir = './'
   prefix = 'batio3'
   seedname = 'ex5'
   spin_component = 'none'
   write_mmn = .true.
   write_amn = .true.
   write_unk = .true.
/
