&inputpp
    outdir='../work/'
    prefix='GaAs',
    seedname = 'GaAs'
    write_unk = .true.
    write_dmn = .false. ! additional input for symmetry-adapted mode
/
