---
 &inputph
  tr2_ph=1.0d-17,
  prefix='bn',
  amass(1)=10.811,
  amass(2)=14.0067,
  outdir='./',
  fildyn='bn.dyn.xml',
  fildvscf='dvscf'
  ldisp=.true.,
  epsil=.true.,
  nq1 = 4,
  nq2 = 4,
  nq3 = 4
 /
