&bands
   prefix  = 'pb'
   outdir = './'
   filband = 'bands.dat'
/
