--
&inputph
  prefix   = 'mgb2',
  fildyn   = 'mgb2.dyn.xml',
  amass(1) = 24.305,
  amass(2) = 10.811,
  outdir   = './'
  ldisp    = .true.,
  fildvscf = 'dvscf',
  nq1      = 2,
  nq2      = 2,
  nq3      = 2,
  tr2_ph   =  1.0d-16
 /
