&inputpp 
   outdir = './'
   prefix = 'Fe'
   seedname = 'Fe'
   write_eig = .false.
   write_mmn = .false.
   write_amn = .false.
   write_spn = .false.
   write_unk = .false.
   write_uHu = .true.
/
