&projwfc
    prefix = 'pb',
    outdir = './',
    lsym = .FALSE.,
    filproj = 'lead-proj'
 /
