--
 &control
    calculation     = 'nscf'
    prefix          = 'pb'
    restart_mode    = 'from_scratch'
    wf_collect      = .true.
    pseudo_dir      = './'
    outdir          = './'
    verbosity       = 'high'
 /
 &system
    ibrav           = 2
    celldm(1)       = 9.27
    nat             = 1
    ntyp            = 1
    ecutwfc         = 30
    occupations     = 'smearing'
    smearing        = 'mp'
    degauss         = 0.025
    nbnd            = 10
 /
 &electrons
    diagonalization = 'david'
    mixing_beta     = 0.7
    conv_thr        = 1.0d-12
 /
ATOMIC_SPECIES
 Pb 207.2   pb_s.UPF
ATOMIC_POSITIONS crystal
Pb  0.000000000   0.000000000   0.000000000
K_POINTS crystal
27
0.0000000000000000   0.0000000000000000   0.0000000000000000   0.037037037037
0.0000000000000000   0.0000000000000000   0.3333333333333333   0.037037037037
0.0000000000000000   0.0000000000000000   0.6666666666666667   0.037037037037
0.0000000000000000   0.3333333333333333   0.0000000000000000   0.037037037037
0.0000000000000000   0.3333333333333333   0.3333333333333333   0.037037037037
0.0000000000000000   0.3333333333333333   0.6666666666666667   0.037037037037
0.0000000000000000   0.6666666666666667   0.0000000000000000   0.037037037037
0.0000000000000000   0.6666666666666667   0.3333333333333333   0.037037037037
0.0000000000000000   0.6666666666666667   0.6666666666666667   0.037037037037
0.3333333333333333   0.0000000000000000   0.0000000000000000   0.037037037037
0.3333333333333333   0.0000000000000000   0.3333333333333333   0.037037037037
0.3333333333333333   0.0000000000000000   0.6666666666666667   0.037037037037
0.3333333333333333   0.3333333333333333   0.0000000000000000   0.037037037037
0.3333333333333333   0.3333333333333333   0.3333333333333333   0.037037037037
0.3333333333333333   0.3333333333333333   0.6666666666666667   0.037037037037
0.3333333333333333   0.6666666666666667   0.0000000000000000   0.037037037037
0.3333333333333333   0.6666666666666667   0.3333333333333333   0.037037037037
0.3333333333333333   0.6666666666666667   0.6666666666666667   0.037037037037
0.6666666666666667   0.0000000000000000   0.0000000000000000   0.037037037037
0.6666666666666667   0.0000000000000000   0.3333333333333333   0.037037037037
0.6666666666666667   0.0000000000000000   0.6666666666666667   0.037037037037
0.6666666666666667   0.3333333333333333   0.0000000000000000   0.037037037037
0.6666666666666667   0.3333333333333333   0.3333333333333333   0.037037037037
0.6666666666666667   0.3333333333333333   0.6666666666666667   0.037037037037
0.6666666666666667   0.6666666666666667   0.0000000000000000   0.037037037037
0.6666666666666667   0.6666666666666667   0.3333333333333333   0.037037037037
0.6666666666666667   0.6666666666666667   0.6666666666666667   0.037037037037
