--
&inputph
  recover  = .false.
  tr2_ph   = 1.0d-17,
  prefix   = 'pb',
  fildyn   = 'pb.dyn.xml',
  fildvscf = 'dvscf'
  ldisp    = .true.,
  nq1 = 3,
  nq2 = 3,
  nq3 = 3
 /
