&inputpp
    outdir='./'
    prefix='GaAs',
    seedname = 'GaAs'
	write_amn  = .true.
	write_mmn  = .true.
	write_unk  = .true.
	! SCDM keywords *fill this area in for isolated bands; see the user guide*


/
