&CONTROL
   calculation     =  'bands',
   prefix          =  'snte',
   pseudo_dir = '/scratch/irmik/jobs/571380/pseudo',
   outdir='/scratch/irmik/jobs/571380/out',
   restart_mode    =  'from_scratch',
 /

 &SYSTEM
   ibrav           =  0,
   A               =  6.309,
   degauss         =  0.0001,
   ecutwfc         =  33.09,
   nat             =  2,
   ntyp            =  2,
   occupations     =  'smearing',
   smearing        =  'mv',
   lspinorb        = .TRUE.
   noncolin        = .TRUE.
 /

 &ELECTRONS
   mixing_beta = 0.3,
   conv_thr    = 1e-8,
 /

CELL_PARAMETERS alat
  0.0000000000000000   0.5000000000000000   0.5000000000000000   
  0.5000000000000000   0.0000000000000000   0.5000000000000000
  0.5000000000000000   0.5000000000000000   0.0000000000000000

ATOMIC_SPECIES
  Sn 118   Sn.upf
  Te 128   Te.upf

ATOMIC_POSITIONS crystal
Sn             0.0000000000        0.0000000000        0.0000000000
Te             0.5000000000        0.5000000000        0.5000000000

K_POINTS crystal_b
5
0.50 0.00 0.50 15 ! X
0.50 0.25 0.75 15 ! W
0.50 0.50 0.50 15 ! L
0.00 0.00 0.00 15 ! G
0.50 0.00 0.50 15 ! X
