&bands
   outdir='/scratch/irmik/jobs/571380/out',
   prefix          =  'snte',
   filband         = 'snte.bands.dat'
/
