begin unit_cell_cart
ang
-1.909144696   1.909144696   6.603098061
 1.909144696  -1.909144696   6.603098061
 1.909144696   1.909144696  -6.603098061
end unit_cell_cart

begin atoms_cart
ang
La           -0.0000000000       -0.0000000000        4.7702839137
La            1.9091446961        1.9091446961        1.8328141469
Cu           -0.0000000000       -0.0000000000       -0.0000000000
O            -0.0000000000        1.9091446961        0.0000000000
O             1.9091446961       -0.0000000000        0.0000000000
O            -0.0000000000       -0.0000000000        2.4522239552
O             1.9091446961        1.9091446961        4.1508741055
end atoms_cart

! system
num_wann = 1
num_bands = 5
mp_grid 7 7 7

! job control
exclude_bands : 1-28,34-40
iprint = 2

! plotting
wannier_plot = false
wannier_plot_supercell = 3
bands_plot = true
bands_num_points = 100
bands_plot_format = gnuplot
write_hr = true
write_u_matrices = true

! disentanglement
dis_win_min = 10.0
dis_win_max = 16.0
dis_froz_min = 12.3
dis_froz_max = 16.0
dis_num_iter = 1000
dis_conv_tol = 1.0E-12
!dis_mix_ratio = 0.9

! wannierisation
num_iter = 1000
conv_window = 5
conv_tol = 1e-12

! pp tools
kpath = false
kpath_task = bands
kpath_bands_colour = spin
kpath_num_points=500
begin kpoint_path
 G 0.00  0.00  0.00  N 0.25 -0.25  0.25
 N 0.25 -0.25  0.25  X 0.00  0.00  0.50
 X 0.00  0.00  0.50  G 0.00  0.00  0.00
 G 0.00  0.00  0.00  M 0.25  0.25 -0.25
end kpoint_path

kslice = false
kslice_task = fermi_lines
fermi_energy = 11.375
kslice_2dkmesh = 200 200
kslice_corner =  0.00  0.00  0.00
!kslice_b1 =     -0.27259  0.27259  0.27259
!kslice_b2 =      0.27259 -0.27259  0.27259
kslice_b1 =     -0.25  0.25  0.25
kslice_b2 =      0.25 -0.25  0.25
!kslice_b1 =      0.00  0.50  0.00
!kslice_b2 =      0.50  0.00  0.00
!kslice_fermi_lines_colour = spin

dos = true
dos_project = 1
!dos_energy_min = 8.
!dos_energy_max = 13.
dos_kmesh = 50
!dos_adpt_smr = false
!dos_smr_type = gauss
!dos_smr_fixed_en_width = 0.05

begin projections
Cu:dx2-y2:x=1,0,0
end projections

begin kpoints
  0.00000000  0.00000000  0.00000000
  0.00000000  0.00000000  0.14285714
  0.00000000  0.00000000  0.28571429
  0.00000000  0.00000000  0.42857143
  0.00000000  0.00000000  0.57142857
  0.00000000  0.00000000  0.71428571
  0.00000000  0.00000000  0.85714286
  0.00000000  0.14285714  0.00000000
  0.00000000  0.14285714  0.14285714
  0.00000000  0.14285714  0.28571429
  0.00000000  0.14285714  0.42857143
  0.00000000  0.14285714  0.57142857
  0.00000000  0.14285714  0.71428571
  0.00000000  0.14285714  0.85714286
  0.00000000  0.28571429  0.00000000
  0.00000000  0.28571429  0.14285714
  0.00000000  0.28571429  0.28571429
  0.00000000  0.28571429  0.42857143
  0.00000000  0.28571429  0.57142857
  0.00000000  0.28571429  0.71428571
  0.00000000  0.28571429  0.85714286
  0.00000000  0.42857143  0.00000000
  0.00000000  0.42857143  0.14285714
  0.00000000  0.42857143  0.28571429
  0.00000000  0.42857143  0.42857143
  0.00000000  0.42857143  0.57142857
  0.00000000  0.42857143  0.71428571
  0.00000000  0.42857143  0.85714286
  0.00000000  0.57142857  0.00000000
  0.00000000  0.57142857  0.14285714
  0.00000000  0.57142857  0.28571429
  0.00000000  0.57142857  0.42857143
  0.00000000  0.57142857  0.57142857
  0.00000000  0.57142857  0.71428571
  0.00000000  0.57142857  0.85714286
  0.00000000  0.71428571  0.00000000
  0.00000000  0.71428571  0.14285714
  0.00000000  0.71428571  0.28571429
  0.00000000  0.71428571  0.42857143
  0.00000000  0.71428571  0.57142857
  0.00000000  0.71428571  0.71428571
  0.00000000  0.71428571  0.85714286
  0.00000000  0.85714286  0.00000000
  0.00000000  0.85714286  0.14285714
  0.00000000  0.85714286  0.28571429
  0.00000000  0.85714286  0.42857143
  0.00000000  0.85714286  0.57142857
  0.00000000  0.85714286  0.71428571
  0.00000000  0.85714286  0.85714286
  0.14285714  0.00000000  0.00000000
  0.14285714  0.00000000  0.14285714
  0.14285714  0.00000000  0.28571429
  0.14285714  0.00000000  0.42857143
  0.14285714  0.00000000  0.57142857
  0.14285714  0.00000000  0.71428571
  0.14285714  0.00000000  0.85714286
  0.14285714  0.14285714  0.00000000
  0.14285714  0.14285714  0.14285714
  0.14285714  0.14285714  0.28571429
  0.14285714  0.14285714  0.42857143
  0.14285714  0.14285714  0.57142857
  0.14285714  0.14285714  0.71428571
  0.14285714  0.14285714  0.85714286
  0.14285714  0.28571429  0.00000000
  0.14285714  0.28571429  0.14285714
  0.14285714  0.28571429  0.28571429
  0.14285714  0.28571429  0.42857143
  0.14285714  0.28571429  0.57142857
  0.14285714  0.28571429  0.71428571
  0.14285714  0.28571429  0.85714286
  0.14285714  0.42857143  0.00000000
  0.14285714  0.42857143  0.14285714
  0.14285714  0.42857143  0.28571429
  0.14285714  0.42857143  0.42857143
  0.14285714  0.42857143  0.57142857
  0.14285714  0.42857143  0.71428571
  0.14285714  0.42857143  0.85714286
  0.14285714  0.57142857  0.00000000
  0.14285714  0.57142857  0.14285714
  0.14285714  0.57142857  0.28571429
  0.14285714  0.57142857  0.42857143
  0.14285714  0.57142857  0.57142857
  0.14285714  0.57142857  0.71428571
  0.14285714  0.57142857  0.85714286
  0.14285714  0.71428571  0.00000000
  0.14285714  0.71428571  0.14285714
  0.14285714  0.71428571  0.28571429
  0.14285714  0.71428571  0.42857143
  0.14285714  0.71428571  0.57142857
  0.14285714  0.71428571  0.71428571
  0.14285714  0.71428571  0.85714286
  0.14285714  0.85714286  0.00000000
  0.14285714  0.85714286  0.14285714
  0.14285714  0.85714286  0.28571429
  0.14285714  0.85714286  0.42857143
  0.14285714  0.85714286  0.57142857
  0.14285714  0.85714286  0.71428571
  0.14285714  0.85714286  0.85714286
  0.28571429  0.00000000  0.00000000
  0.28571429  0.00000000  0.14285714
  0.28571429  0.00000000  0.28571429
  0.28571429  0.00000000  0.42857143
  0.28571429  0.00000000  0.57142857
  0.28571429  0.00000000  0.71428571
  0.28571429  0.00000000  0.85714286
  0.28571429  0.14285714  0.00000000
  0.28571429  0.14285714  0.14285714
  0.28571429  0.14285714  0.28571429
  0.28571429  0.14285714  0.42857143
  0.28571429  0.14285714  0.57142857
  0.28571429  0.14285714  0.71428571
  0.28571429  0.14285714  0.85714286
  0.28571429  0.28571429  0.00000000
  0.28571429  0.28571429  0.14285714
  0.28571429  0.28571429  0.28571429
  0.28571429  0.28571429  0.42857143
  0.28571429  0.28571429  0.57142857
  0.28571429  0.28571429  0.71428571
  0.28571429  0.28571429  0.85714286
  0.28571429  0.42857143  0.00000000
  0.28571429  0.42857143  0.14285714
  0.28571429  0.42857143  0.28571429
  0.28571429  0.42857143  0.42857143
  0.28571429  0.42857143  0.57142857
  0.28571429  0.42857143  0.71428571
  0.28571429  0.42857143  0.85714286
  0.28571429  0.57142857  0.00000000
  0.28571429  0.57142857  0.14285714
  0.28571429  0.57142857  0.28571429
  0.28571429  0.57142857  0.42857143
  0.28571429  0.57142857  0.57142857
  0.28571429  0.57142857  0.71428571
  0.28571429  0.57142857  0.85714286
  0.28571429  0.71428571  0.00000000
  0.28571429  0.71428571  0.14285714
  0.28571429  0.71428571  0.28571429
  0.28571429  0.71428571  0.42857143
  0.28571429  0.71428571  0.57142857
  0.28571429  0.71428571  0.71428571
  0.28571429  0.71428571  0.85714286
  0.28571429  0.85714286  0.00000000
  0.28571429  0.85714286  0.14285714
  0.28571429  0.85714286  0.28571429
  0.28571429  0.85714286  0.42857143
  0.28571429  0.85714286  0.57142857
  0.28571429  0.85714286  0.71428571
  0.28571429  0.85714286  0.85714286
  0.42857143  0.00000000  0.00000000
  0.42857143  0.00000000  0.14285714
  0.42857143  0.00000000  0.28571429
  0.42857143  0.00000000  0.42857143
  0.42857143  0.00000000  0.57142857
  0.42857143  0.00000000  0.71428571
  0.42857143  0.00000000  0.85714286
  0.42857143  0.14285714  0.00000000
  0.42857143  0.14285714  0.14285714
  0.42857143  0.14285714  0.28571429
  0.42857143  0.14285714  0.42857143
  0.42857143  0.14285714  0.57142857
  0.42857143  0.14285714  0.71428571
  0.42857143  0.14285714  0.85714286
  0.42857143  0.28571429  0.00000000
  0.42857143  0.28571429  0.14285714
  0.42857143  0.28571429  0.28571429
  0.42857143  0.28571429  0.42857143
  0.42857143  0.28571429  0.57142857
  0.42857143  0.28571429  0.71428571
  0.42857143  0.28571429  0.85714286
  0.42857143  0.42857143  0.00000000
  0.42857143  0.42857143  0.14285714
  0.42857143  0.42857143  0.28571429
  0.42857143  0.42857143  0.42857143
  0.42857143  0.42857143  0.57142857
  0.42857143  0.42857143  0.71428571
  0.42857143  0.42857143  0.85714286
  0.42857143  0.57142857  0.00000000
  0.42857143  0.57142857  0.14285714
  0.42857143  0.57142857  0.28571429
  0.42857143  0.57142857  0.42857143
  0.42857143  0.57142857  0.57142857
  0.42857143  0.57142857  0.71428571
  0.42857143  0.57142857  0.85714286
  0.42857143  0.71428571  0.00000000
  0.42857143  0.71428571  0.14285714
  0.42857143  0.71428571  0.28571429
  0.42857143  0.71428571  0.42857143
  0.42857143  0.71428571  0.57142857
  0.42857143  0.71428571  0.71428571
  0.42857143  0.71428571  0.85714286
  0.42857143  0.85714286  0.00000000
  0.42857143  0.85714286  0.14285714
  0.42857143  0.85714286  0.28571429
  0.42857143  0.85714286  0.42857143
  0.42857143  0.85714286  0.57142857
  0.42857143  0.85714286  0.71428571
  0.42857143  0.85714286  0.85714286
  0.57142857  0.00000000  0.00000000
  0.57142857  0.00000000  0.14285714
  0.57142857  0.00000000  0.28571429
  0.57142857  0.00000000  0.42857143
  0.57142857  0.00000000  0.57142857
  0.57142857  0.00000000  0.71428571
  0.57142857  0.00000000  0.85714286
  0.57142857  0.14285714  0.00000000
  0.57142857  0.14285714  0.14285714
  0.57142857  0.14285714  0.28571429
  0.57142857  0.14285714  0.42857143
  0.57142857  0.14285714  0.57142857
  0.57142857  0.14285714  0.71428571
  0.57142857  0.14285714  0.85714286
  0.57142857  0.28571429  0.00000000
  0.57142857  0.28571429  0.14285714
  0.57142857  0.28571429  0.28571429
  0.57142857  0.28571429  0.42857143
  0.57142857  0.28571429  0.57142857
  0.57142857  0.28571429  0.71428571
  0.57142857  0.28571429  0.85714286
  0.57142857  0.42857143  0.00000000
  0.57142857  0.42857143  0.14285714
  0.57142857  0.42857143  0.28571429
  0.57142857  0.42857143  0.42857143
  0.57142857  0.42857143  0.57142857
  0.57142857  0.42857143  0.71428571
  0.57142857  0.42857143  0.85714286
  0.57142857  0.57142857  0.00000000
  0.57142857  0.57142857  0.14285714
  0.57142857  0.57142857  0.28571429
  0.57142857  0.57142857  0.42857143
  0.57142857  0.57142857  0.57142857
  0.57142857  0.57142857  0.71428571
  0.57142857  0.57142857  0.85714286
  0.57142857  0.71428571  0.00000000
  0.57142857  0.71428571  0.14285714
  0.57142857  0.71428571  0.28571429
  0.57142857  0.71428571  0.42857143
  0.57142857  0.71428571  0.57142857
  0.57142857  0.71428571  0.71428571
  0.57142857  0.71428571  0.85714286
  0.57142857  0.85714286  0.00000000
  0.57142857  0.85714286  0.14285714
  0.57142857  0.85714286  0.28571429
  0.57142857  0.85714286  0.42857143
  0.57142857  0.85714286  0.57142857
  0.57142857  0.85714286  0.71428571
  0.57142857  0.85714286  0.85714286
  0.71428571  0.00000000  0.00000000
  0.71428571  0.00000000  0.14285714
  0.71428571  0.00000000  0.28571429
  0.71428571  0.00000000  0.42857143
  0.71428571  0.00000000  0.57142857
  0.71428571  0.00000000  0.71428571
  0.71428571  0.00000000  0.85714286
  0.71428571  0.14285714  0.00000000
  0.71428571  0.14285714  0.14285714
  0.71428571  0.14285714  0.28571429
  0.71428571  0.14285714  0.42857143
  0.71428571  0.14285714  0.57142857
  0.71428571  0.14285714  0.71428571
  0.71428571  0.14285714  0.85714286
  0.71428571  0.28571429  0.00000000
  0.71428571  0.28571429  0.14285714
  0.71428571  0.28571429  0.28571429
  0.71428571  0.28571429  0.42857143
  0.71428571  0.28571429  0.57142857
  0.71428571  0.28571429  0.71428571
  0.71428571  0.28571429  0.85714286
  0.71428571  0.42857143  0.00000000
  0.71428571  0.42857143  0.14285714
  0.71428571  0.42857143  0.28571429
  0.71428571  0.42857143  0.42857143
  0.71428571  0.42857143  0.57142857
  0.71428571  0.42857143  0.71428571
  0.71428571  0.42857143  0.85714286
  0.71428571  0.57142857  0.00000000
  0.71428571  0.57142857  0.14285714
  0.71428571  0.57142857  0.28571429
  0.71428571  0.57142857  0.42857143
  0.71428571  0.57142857  0.57142857
  0.71428571  0.57142857  0.71428571
  0.71428571  0.57142857  0.85714286
  0.71428571  0.71428571  0.00000000
  0.71428571  0.71428571  0.14285714
  0.71428571  0.71428571  0.28571429
  0.71428571  0.71428571  0.42857143
  0.71428571  0.71428571  0.57142857
  0.71428571  0.71428571  0.71428571
  0.71428571  0.71428571  0.85714286
  0.71428571  0.85714286  0.00000000
  0.71428571  0.85714286  0.14285714
  0.71428571  0.85714286  0.28571429
  0.71428571  0.85714286  0.42857143
  0.71428571  0.85714286  0.57142857
  0.71428571  0.85714286  0.71428571
  0.71428571  0.85714286  0.85714286
  0.85714286  0.00000000  0.00000000
  0.85714286  0.00000000  0.14285714
  0.85714286  0.00000000  0.28571429
  0.85714286  0.00000000  0.42857143
  0.85714286  0.00000000  0.57142857
  0.85714286  0.00000000  0.71428571
  0.85714286  0.00000000  0.85714286
  0.85714286  0.14285714  0.00000000
  0.85714286  0.14285714  0.14285714
  0.85714286  0.14285714  0.28571429
  0.85714286  0.14285714  0.42857143
  0.85714286  0.14285714  0.57142857
  0.85714286  0.14285714  0.71428571
  0.85714286  0.14285714  0.85714286
  0.85714286  0.28571429  0.00000000
  0.85714286  0.28571429  0.14285714
  0.85714286  0.28571429  0.28571429
  0.85714286  0.28571429  0.42857143
  0.85714286  0.28571429  0.57142857
  0.85714286  0.28571429  0.71428571
  0.85714286  0.28571429  0.85714286
  0.85714286  0.42857143  0.00000000
  0.85714286  0.42857143  0.14285714
  0.85714286  0.42857143  0.28571429
  0.85714286  0.42857143  0.42857143
  0.85714286  0.42857143  0.57142857
  0.85714286  0.42857143  0.71428571
  0.85714286  0.42857143  0.85714286
  0.85714286  0.57142857  0.00000000
  0.85714286  0.57142857  0.14285714
  0.85714286  0.57142857  0.28571429
  0.85714286  0.57142857  0.42857143
  0.85714286  0.57142857  0.57142857
  0.85714286  0.57142857  0.71428571
  0.85714286  0.57142857  0.85714286
  0.85714286  0.71428571  0.00000000
  0.85714286  0.71428571  0.14285714
  0.85714286  0.71428571  0.28571429
  0.85714286  0.71428571  0.42857143
  0.85714286  0.71428571  0.57142857
  0.85714286  0.71428571  0.71428571
  0.85714286  0.71428571  0.85714286
  0.85714286  0.85714286  0.00000000
  0.85714286  0.85714286  0.14285714
  0.85714286  0.85714286  0.28571429
  0.85714286  0.85714286  0.42857143
  0.85714286  0.85714286  0.57142857
  0.85714286  0.85714286  0.71428571
  0.85714286  0.85714286  0.85714286
end kpoints
