&control
   calculation        = 'nscf',
   restart_mode       = 'from_scratch',
   wf_collect         = .false.,
   prefix             = 'lco', 
   tstress            = .true., 
   tprnfor            = .true., 
   pseudo_dir         = '../pseudo/',
   outdir             = '../tmp/',
   verbosity          = 'high',
/ 
&system 
   ibrav              = 0,
   nat                = 7,
   ntyp               = 3,
   ecutwfc            = 55.0,
   ecutrho            = 660.0,
   occupations        = 'smearing',
   degauss            = 0.01,
   smearing           = 'm-p',
   nosym              = .true.,
/ 
&electrons 
   conv_thr           = 1.0d-10,
   mixing_beta        = 0.7,
   mixing_mode        = 'local-TF'
   startingpot        = 'file',
/

ATOMIC_SPECIES 
   La   138.905       la_pbe_v1.uspp.F.UPF
   Cu   58.6934       cu_pbe_v1.2.uspp.F.UPF
   O    15.9994       o_pbe_v1.2.uspp.F.UPF

CELL_PARAMETERS (angstrom)
  -1.909144696   1.909144696   6.603098061
   1.909144696  -1.909144696   6.603098061
   1.909144696   1.909144696  -6.603098061

ATOMIC_POSITIONS (angstrom)
La           -0.0000000000       -0.0000000000        4.7702839137
La            1.9091446961        1.9091446961        1.8328141469
Cu           -0.0000000000       -0.0000000000       -0.0000000000
O            -0.0000000000        1.9091446961        0.0000000000
O             1.9091446961       -0.0000000000        0.0000000000
O            -0.0000000000       -0.0000000000        2.4522239552
O             1.9091446961        1.9091446961        4.1508741055

K_POINTS crystal
343
  0.00000000  0.00000000  0.00000000  2.915452e-03
  0.00000000  0.00000000  0.14285714  2.915452e-03
  0.00000000  0.00000000  0.28571429  2.915452e-03
  0.00000000  0.00000000  0.42857143  2.915452e-03
  0.00000000  0.00000000  0.57142857  2.915452e-03
  0.00000000  0.00000000  0.71428571  2.915452e-03
  0.00000000  0.00000000  0.85714286  2.915452e-03
  0.00000000  0.14285714  0.00000000  2.915452e-03
  0.00000000  0.14285714  0.14285714  2.915452e-03
  0.00000000  0.14285714  0.28571429  2.915452e-03
  0.00000000  0.14285714  0.42857143  2.915452e-03
  0.00000000  0.14285714  0.57142857  2.915452e-03
  0.00000000  0.14285714  0.71428571  2.915452e-03
  0.00000000  0.14285714  0.85714286  2.915452e-03
  0.00000000  0.28571429  0.00000000  2.915452e-03
  0.00000000  0.28571429  0.14285714  2.915452e-03
  0.00000000  0.28571429  0.28571429  2.915452e-03
  0.00000000  0.28571429  0.42857143  2.915452e-03
  0.00000000  0.28571429  0.57142857  2.915452e-03
  0.00000000  0.28571429  0.71428571  2.915452e-03
  0.00000000  0.28571429  0.85714286  2.915452e-03
  0.00000000  0.42857143  0.00000000  2.915452e-03
  0.00000000  0.42857143  0.14285714  2.915452e-03
  0.00000000  0.42857143  0.28571429  2.915452e-03
  0.00000000  0.42857143  0.42857143  2.915452e-03
  0.00000000  0.42857143  0.57142857  2.915452e-03
  0.00000000  0.42857143  0.71428571  2.915452e-03
  0.00000000  0.42857143  0.85714286  2.915452e-03
  0.00000000  0.57142857  0.00000000  2.915452e-03
  0.00000000  0.57142857  0.14285714  2.915452e-03
  0.00000000  0.57142857  0.28571429  2.915452e-03
  0.00000000  0.57142857  0.42857143  2.915452e-03
  0.00000000  0.57142857  0.57142857  2.915452e-03
  0.00000000  0.57142857  0.71428571  2.915452e-03
  0.00000000  0.57142857  0.85714286  2.915452e-03
  0.00000000  0.71428571  0.00000000  2.915452e-03
  0.00000000  0.71428571  0.14285714  2.915452e-03
  0.00000000  0.71428571  0.28571429  2.915452e-03
  0.00000000  0.71428571  0.42857143  2.915452e-03
  0.00000000  0.71428571  0.57142857  2.915452e-03
  0.00000000  0.71428571  0.71428571  2.915452e-03
  0.00000000  0.71428571  0.85714286  2.915452e-03
  0.00000000  0.85714286  0.00000000  2.915452e-03
  0.00000000  0.85714286  0.14285714  2.915452e-03
  0.00000000  0.85714286  0.28571429  2.915452e-03
  0.00000000  0.85714286  0.42857143  2.915452e-03
  0.00000000  0.85714286  0.57142857  2.915452e-03
  0.00000000  0.85714286  0.71428571  2.915452e-03
  0.00000000  0.85714286  0.85714286  2.915452e-03
  0.14285714  0.00000000  0.00000000  2.915452e-03
  0.14285714  0.00000000  0.14285714  2.915452e-03
  0.14285714  0.00000000  0.28571429  2.915452e-03
  0.14285714  0.00000000  0.42857143  2.915452e-03
  0.14285714  0.00000000  0.57142857  2.915452e-03
  0.14285714  0.00000000  0.71428571  2.915452e-03
  0.14285714  0.00000000  0.85714286  2.915452e-03
  0.14285714  0.14285714  0.00000000  2.915452e-03
  0.14285714  0.14285714  0.14285714  2.915452e-03
  0.14285714  0.14285714  0.28571429  2.915452e-03
  0.14285714  0.14285714  0.42857143  2.915452e-03
  0.14285714  0.14285714  0.57142857  2.915452e-03
  0.14285714  0.14285714  0.71428571  2.915452e-03
  0.14285714  0.14285714  0.85714286  2.915452e-03
  0.14285714  0.28571429  0.00000000  2.915452e-03
  0.14285714  0.28571429  0.14285714  2.915452e-03
  0.14285714  0.28571429  0.28571429  2.915452e-03
  0.14285714  0.28571429  0.42857143  2.915452e-03
  0.14285714  0.28571429  0.57142857  2.915452e-03
  0.14285714  0.28571429  0.71428571  2.915452e-03
  0.14285714  0.28571429  0.85714286  2.915452e-03
  0.14285714  0.42857143  0.00000000  2.915452e-03
  0.14285714  0.42857143  0.14285714  2.915452e-03
  0.14285714  0.42857143  0.28571429  2.915452e-03
  0.14285714  0.42857143  0.42857143  2.915452e-03
  0.14285714  0.42857143  0.57142857  2.915452e-03
  0.14285714  0.42857143  0.71428571  2.915452e-03
  0.14285714  0.42857143  0.85714286  2.915452e-03
  0.14285714  0.57142857  0.00000000  2.915452e-03
  0.14285714  0.57142857  0.14285714  2.915452e-03
  0.14285714  0.57142857  0.28571429  2.915452e-03
  0.14285714  0.57142857  0.42857143  2.915452e-03
  0.14285714  0.57142857  0.57142857  2.915452e-03
  0.14285714  0.57142857  0.71428571  2.915452e-03
  0.14285714  0.57142857  0.85714286  2.915452e-03
  0.14285714  0.71428571  0.00000000  2.915452e-03
  0.14285714  0.71428571  0.14285714  2.915452e-03
  0.14285714  0.71428571  0.28571429  2.915452e-03
  0.14285714  0.71428571  0.42857143  2.915452e-03
  0.14285714  0.71428571  0.57142857  2.915452e-03
  0.14285714  0.71428571  0.71428571  2.915452e-03
  0.14285714  0.71428571  0.85714286  2.915452e-03
  0.14285714  0.85714286  0.00000000  2.915452e-03
  0.14285714  0.85714286  0.14285714  2.915452e-03
  0.14285714  0.85714286  0.28571429  2.915452e-03
  0.14285714  0.85714286  0.42857143  2.915452e-03
  0.14285714  0.85714286  0.57142857  2.915452e-03
  0.14285714  0.85714286  0.71428571  2.915452e-03
  0.14285714  0.85714286  0.85714286  2.915452e-03
  0.28571429  0.00000000  0.00000000  2.915452e-03
  0.28571429  0.00000000  0.14285714  2.915452e-03
  0.28571429  0.00000000  0.28571429  2.915452e-03
  0.28571429  0.00000000  0.42857143  2.915452e-03
  0.28571429  0.00000000  0.57142857  2.915452e-03
  0.28571429  0.00000000  0.71428571  2.915452e-03
  0.28571429  0.00000000  0.85714286  2.915452e-03
  0.28571429  0.14285714  0.00000000  2.915452e-03
  0.28571429  0.14285714  0.14285714  2.915452e-03
  0.28571429  0.14285714  0.28571429  2.915452e-03
  0.28571429  0.14285714  0.42857143  2.915452e-03
  0.28571429  0.14285714  0.57142857  2.915452e-03
  0.28571429  0.14285714  0.71428571  2.915452e-03
  0.28571429  0.14285714  0.85714286  2.915452e-03
  0.28571429  0.28571429  0.00000000  2.915452e-03
  0.28571429  0.28571429  0.14285714  2.915452e-03
  0.28571429  0.28571429  0.28571429  2.915452e-03
  0.28571429  0.28571429  0.42857143  2.915452e-03
  0.28571429  0.28571429  0.57142857  2.915452e-03
  0.28571429  0.28571429  0.71428571  2.915452e-03
  0.28571429  0.28571429  0.85714286  2.915452e-03
  0.28571429  0.42857143  0.00000000  2.915452e-03
  0.28571429  0.42857143  0.14285714  2.915452e-03
  0.28571429  0.42857143  0.28571429  2.915452e-03
  0.28571429  0.42857143  0.42857143  2.915452e-03
  0.28571429  0.42857143  0.57142857  2.915452e-03
  0.28571429  0.42857143  0.71428571  2.915452e-03
  0.28571429  0.42857143  0.85714286  2.915452e-03
  0.28571429  0.57142857  0.00000000  2.915452e-03
  0.28571429  0.57142857  0.14285714  2.915452e-03
  0.28571429  0.57142857  0.28571429  2.915452e-03
  0.28571429  0.57142857  0.42857143  2.915452e-03
  0.28571429  0.57142857  0.57142857  2.915452e-03
  0.28571429  0.57142857  0.71428571  2.915452e-03
  0.28571429  0.57142857  0.85714286  2.915452e-03
  0.28571429  0.71428571  0.00000000  2.915452e-03
  0.28571429  0.71428571  0.14285714  2.915452e-03
  0.28571429  0.71428571  0.28571429  2.915452e-03
  0.28571429  0.71428571  0.42857143  2.915452e-03
  0.28571429  0.71428571  0.57142857  2.915452e-03
  0.28571429  0.71428571  0.71428571  2.915452e-03
  0.28571429  0.71428571  0.85714286  2.915452e-03
  0.28571429  0.85714286  0.00000000  2.915452e-03
  0.28571429  0.85714286  0.14285714  2.915452e-03
  0.28571429  0.85714286  0.28571429  2.915452e-03
  0.28571429  0.85714286  0.42857143  2.915452e-03
  0.28571429  0.85714286  0.57142857  2.915452e-03
  0.28571429  0.85714286  0.71428571  2.915452e-03
  0.28571429  0.85714286  0.85714286  2.915452e-03
  0.42857143  0.00000000  0.00000000  2.915452e-03
  0.42857143  0.00000000  0.14285714  2.915452e-03
  0.42857143  0.00000000  0.28571429  2.915452e-03
  0.42857143  0.00000000  0.42857143  2.915452e-03
  0.42857143  0.00000000  0.57142857  2.915452e-03
  0.42857143  0.00000000  0.71428571  2.915452e-03
  0.42857143  0.00000000  0.85714286  2.915452e-03
  0.42857143  0.14285714  0.00000000  2.915452e-03
  0.42857143  0.14285714  0.14285714  2.915452e-03
  0.42857143  0.14285714  0.28571429  2.915452e-03
  0.42857143  0.14285714  0.42857143  2.915452e-03
  0.42857143  0.14285714  0.57142857  2.915452e-03
  0.42857143  0.14285714  0.71428571  2.915452e-03
  0.42857143  0.14285714  0.85714286  2.915452e-03
  0.42857143  0.28571429  0.00000000  2.915452e-03
  0.42857143  0.28571429  0.14285714  2.915452e-03
  0.42857143  0.28571429  0.28571429  2.915452e-03
  0.42857143  0.28571429  0.42857143  2.915452e-03
  0.42857143  0.28571429  0.57142857  2.915452e-03
  0.42857143  0.28571429  0.71428571  2.915452e-03
  0.42857143  0.28571429  0.85714286  2.915452e-03
  0.42857143  0.42857143  0.00000000  2.915452e-03
  0.42857143  0.42857143  0.14285714  2.915452e-03
  0.42857143  0.42857143  0.28571429  2.915452e-03
  0.42857143  0.42857143  0.42857143  2.915452e-03
  0.42857143  0.42857143  0.57142857  2.915452e-03
  0.42857143  0.42857143  0.71428571  2.915452e-03
  0.42857143  0.42857143  0.85714286  2.915452e-03
  0.42857143  0.57142857  0.00000000  2.915452e-03
  0.42857143  0.57142857  0.14285714  2.915452e-03
  0.42857143  0.57142857  0.28571429  2.915452e-03
  0.42857143  0.57142857  0.42857143  2.915452e-03
  0.42857143  0.57142857  0.57142857  2.915452e-03
  0.42857143  0.57142857  0.71428571  2.915452e-03
  0.42857143  0.57142857  0.85714286  2.915452e-03
  0.42857143  0.71428571  0.00000000  2.915452e-03
  0.42857143  0.71428571  0.14285714  2.915452e-03
  0.42857143  0.71428571  0.28571429  2.915452e-03
  0.42857143  0.71428571  0.42857143  2.915452e-03
  0.42857143  0.71428571  0.57142857  2.915452e-03
  0.42857143  0.71428571  0.71428571  2.915452e-03
  0.42857143  0.71428571  0.85714286  2.915452e-03
  0.42857143  0.85714286  0.00000000  2.915452e-03
  0.42857143  0.85714286  0.14285714  2.915452e-03
  0.42857143  0.85714286  0.28571429  2.915452e-03
  0.42857143  0.85714286  0.42857143  2.915452e-03
  0.42857143  0.85714286  0.57142857  2.915452e-03
  0.42857143  0.85714286  0.71428571  2.915452e-03
  0.42857143  0.85714286  0.85714286  2.915452e-03
  0.57142857  0.00000000  0.00000000  2.915452e-03
  0.57142857  0.00000000  0.14285714  2.915452e-03
  0.57142857  0.00000000  0.28571429  2.915452e-03
  0.57142857  0.00000000  0.42857143  2.915452e-03
  0.57142857  0.00000000  0.57142857  2.915452e-03
  0.57142857  0.00000000  0.71428571  2.915452e-03
  0.57142857  0.00000000  0.85714286  2.915452e-03
  0.57142857  0.14285714  0.00000000  2.915452e-03
  0.57142857  0.14285714  0.14285714  2.915452e-03
  0.57142857  0.14285714  0.28571429  2.915452e-03
  0.57142857  0.14285714  0.42857143  2.915452e-03
  0.57142857  0.14285714  0.57142857  2.915452e-03
  0.57142857  0.14285714  0.71428571  2.915452e-03
  0.57142857  0.14285714  0.85714286  2.915452e-03
  0.57142857  0.28571429  0.00000000  2.915452e-03
  0.57142857  0.28571429  0.14285714  2.915452e-03
  0.57142857  0.28571429  0.28571429  2.915452e-03
  0.57142857  0.28571429  0.42857143  2.915452e-03
  0.57142857  0.28571429  0.57142857  2.915452e-03
  0.57142857  0.28571429  0.71428571  2.915452e-03
  0.57142857  0.28571429  0.85714286  2.915452e-03
  0.57142857  0.42857143  0.00000000  2.915452e-03
  0.57142857  0.42857143  0.14285714  2.915452e-03
  0.57142857  0.42857143  0.28571429  2.915452e-03
  0.57142857  0.42857143  0.42857143  2.915452e-03
  0.57142857  0.42857143  0.57142857  2.915452e-03
  0.57142857  0.42857143  0.71428571  2.915452e-03
  0.57142857  0.42857143  0.85714286  2.915452e-03
  0.57142857  0.57142857  0.00000000  2.915452e-03
  0.57142857  0.57142857  0.14285714  2.915452e-03
  0.57142857  0.57142857  0.28571429  2.915452e-03
  0.57142857  0.57142857  0.42857143  2.915452e-03
  0.57142857  0.57142857  0.57142857  2.915452e-03
  0.57142857  0.57142857  0.71428571  2.915452e-03
  0.57142857  0.57142857  0.85714286  2.915452e-03
  0.57142857  0.71428571  0.00000000  2.915452e-03
  0.57142857  0.71428571  0.14285714  2.915452e-03
  0.57142857  0.71428571  0.28571429  2.915452e-03
  0.57142857  0.71428571  0.42857143  2.915452e-03
  0.57142857  0.71428571  0.57142857  2.915452e-03
  0.57142857  0.71428571  0.71428571  2.915452e-03
  0.57142857  0.71428571  0.85714286  2.915452e-03
  0.57142857  0.85714286  0.00000000  2.915452e-03
  0.57142857  0.85714286  0.14285714  2.915452e-03
  0.57142857  0.85714286  0.28571429  2.915452e-03
  0.57142857  0.85714286  0.42857143  2.915452e-03
  0.57142857  0.85714286  0.57142857  2.915452e-03
  0.57142857  0.85714286  0.71428571  2.915452e-03
  0.57142857  0.85714286  0.85714286  2.915452e-03
  0.71428571  0.00000000  0.00000000  2.915452e-03
  0.71428571  0.00000000  0.14285714  2.915452e-03
  0.71428571  0.00000000  0.28571429  2.915452e-03
  0.71428571  0.00000000  0.42857143  2.915452e-03
  0.71428571  0.00000000  0.57142857  2.915452e-03
  0.71428571  0.00000000  0.71428571  2.915452e-03
  0.71428571  0.00000000  0.85714286  2.915452e-03
  0.71428571  0.14285714  0.00000000  2.915452e-03
  0.71428571  0.14285714  0.14285714  2.915452e-03
  0.71428571  0.14285714  0.28571429  2.915452e-03
  0.71428571  0.14285714  0.42857143  2.915452e-03
  0.71428571  0.14285714  0.57142857  2.915452e-03
  0.71428571  0.14285714  0.71428571  2.915452e-03
  0.71428571  0.14285714  0.85714286  2.915452e-03
  0.71428571  0.28571429  0.00000000  2.915452e-03
  0.71428571  0.28571429  0.14285714  2.915452e-03
  0.71428571  0.28571429  0.28571429  2.915452e-03
  0.71428571  0.28571429  0.42857143  2.915452e-03
  0.71428571  0.28571429  0.57142857  2.915452e-03
  0.71428571  0.28571429  0.71428571  2.915452e-03
  0.71428571  0.28571429  0.85714286  2.915452e-03
  0.71428571  0.42857143  0.00000000  2.915452e-03
  0.71428571  0.42857143  0.14285714  2.915452e-03
  0.71428571  0.42857143  0.28571429  2.915452e-03
  0.71428571  0.42857143  0.42857143  2.915452e-03
  0.71428571  0.42857143  0.57142857  2.915452e-03
  0.71428571  0.42857143  0.71428571  2.915452e-03
  0.71428571  0.42857143  0.85714286  2.915452e-03
  0.71428571  0.57142857  0.00000000  2.915452e-03
  0.71428571  0.57142857  0.14285714  2.915452e-03
  0.71428571  0.57142857  0.28571429  2.915452e-03
  0.71428571  0.57142857  0.42857143  2.915452e-03
  0.71428571  0.57142857  0.57142857  2.915452e-03
  0.71428571  0.57142857  0.71428571  2.915452e-03
  0.71428571  0.57142857  0.85714286  2.915452e-03
  0.71428571  0.71428571  0.00000000  2.915452e-03
  0.71428571  0.71428571  0.14285714  2.915452e-03
  0.71428571  0.71428571  0.28571429  2.915452e-03
  0.71428571  0.71428571  0.42857143  2.915452e-03
  0.71428571  0.71428571  0.57142857  2.915452e-03
  0.71428571  0.71428571  0.71428571  2.915452e-03
  0.71428571  0.71428571  0.85714286  2.915452e-03
  0.71428571  0.85714286  0.00000000  2.915452e-03
  0.71428571  0.85714286  0.14285714  2.915452e-03
  0.71428571  0.85714286  0.28571429  2.915452e-03
  0.71428571  0.85714286  0.42857143  2.915452e-03
  0.71428571  0.85714286  0.57142857  2.915452e-03
  0.71428571  0.85714286  0.71428571  2.915452e-03
  0.71428571  0.85714286  0.85714286  2.915452e-03
  0.85714286  0.00000000  0.00000000  2.915452e-03
  0.85714286  0.00000000  0.14285714  2.915452e-03
  0.85714286  0.00000000  0.28571429  2.915452e-03
  0.85714286  0.00000000  0.42857143  2.915452e-03
  0.85714286  0.00000000  0.57142857  2.915452e-03
  0.85714286  0.00000000  0.71428571  2.915452e-03
  0.85714286  0.00000000  0.85714286  2.915452e-03
  0.85714286  0.14285714  0.00000000  2.915452e-03
  0.85714286  0.14285714  0.14285714  2.915452e-03
  0.85714286  0.14285714  0.28571429  2.915452e-03
  0.85714286  0.14285714  0.42857143  2.915452e-03
  0.85714286  0.14285714  0.57142857  2.915452e-03
  0.85714286  0.14285714  0.71428571  2.915452e-03
  0.85714286  0.14285714  0.85714286  2.915452e-03
  0.85714286  0.28571429  0.00000000  2.915452e-03
  0.85714286  0.28571429  0.14285714  2.915452e-03
  0.85714286  0.28571429  0.28571429  2.915452e-03
  0.85714286  0.28571429  0.42857143  2.915452e-03
  0.85714286  0.28571429  0.57142857  2.915452e-03
  0.85714286  0.28571429  0.71428571  2.915452e-03
  0.85714286  0.28571429  0.85714286  2.915452e-03
  0.85714286  0.42857143  0.00000000  2.915452e-03
  0.85714286  0.42857143  0.14285714  2.915452e-03
  0.85714286  0.42857143  0.28571429  2.915452e-03
  0.85714286  0.42857143  0.42857143  2.915452e-03
  0.85714286  0.42857143  0.57142857  2.915452e-03
  0.85714286  0.42857143  0.71428571  2.915452e-03
  0.85714286  0.42857143  0.85714286  2.915452e-03
  0.85714286  0.57142857  0.00000000  2.915452e-03
  0.85714286  0.57142857  0.14285714  2.915452e-03
  0.85714286  0.57142857  0.28571429  2.915452e-03
  0.85714286  0.57142857  0.42857143  2.915452e-03
  0.85714286  0.57142857  0.57142857  2.915452e-03
  0.85714286  0.57142857  0.71428571  2.915452e-03
  0.85714286  0.57142857  0.85714286  2.915452e-03
  0.85714286  0.71428571  0.00000000  2.915452e-03
  0.85714286  0.71428571  0.14285714  2.915452e-03
  0.85714286  0.71428571  0.28571429  2.915452e-03
  0.85714286  0.71428571  0.42857143  2.915452e-03
  0.85714286  0.71428571  0.57142857  2.915452e-03
  0.85714286  0.71428571  0.71428571  2.915452e-03
  0.85714286  0.71428571  0.85714286  2.915452e-03
  0.85714286  0.85714286  0.00000000  2.915452e-03
  0.85714286  0.85714286  0.14285714  2.915452e-03
  0.85714286  0.85714286  0.28571429  2.915452e-03
  0.85714286  0.85714286  0.42857143  2.915452e-03
  0.85714286  0.85714286  0.57142857  2.915452e-03
  0.85714286  0.85714286  0.71428571  2.915452e-03
  0.85714286  0.85714286  0.85714286  2.915452e-03
