&control
  calculation = 'nscf'
  prefix='Cu',
  tstress = .true.
  tprnfor = .true.
  pseudo_dir = './pseudo/',
  outdir='./work/'
  disk_io='low'
  wf_collect=.true.
/
&system
  ibrav = 2,
  celldm(1) = 6.822,
  nat = 1,
  ntyp = 1,
  ecutwfc = 35.0,
  ecutrho = 150.0,
  occupations = 'smearing'
  smearing = 'm-p'
  degauss = 0.01
  nbnd = 10
/
&electrons
  mixing_beta = 0.7
  conv_thr = 1.0d-8
  diago_full_acc = .true.
/
ATOMIC_SPECIES
 Cu  62.930 Cu.pbe-dn-kjpaw_psl.0.2.UPF
ATOMIC_POSITIONS {alat}
 Cu 0.00 0.00 0.00
K_POINTS {crystal}
 512
0.0000  0.0000   0.0000   0.001953125
0.0000  0.1250   0.0000   0.001953125
0.0000  0.2500   0.0000   0.001953125
0.0000  0.3750   0.0000   0.001953125
0.0000  0.5000   0.0000   0.001953125
0.0000  0.6250   0.0000   0.001953125
0.0000  0.7500   0.0000   0.001953125
0.0000  0.8750   0.0000   0.001953125
0.1250  0.0000   0.0000   0.001953125
0.1250  0.1250   0.0000   0.001953125
0.1250  0.2500   0.0000   0.001953125
0.1250  0.3750   0.0000   0.001953125
0.1250  0.5000   0.0000   0.001953125
0.1250  0.6250   0.0000   0.001953125
0.1250  0.7500   0.0000   0.001953125
0.1250  0.8750   0.0000   0.001953125
0.2500  0.0000   0.0000   0.001953125
0.2500  0.1250   0.0000   0.001953125
0.2500  0.2500   0.0000   0.001953125
0.2500  0.3750   0.0000   0.001953125
0.2500  0.5000   0.0000   0.001953125
0.2500  0.6250   0.0000   0.001953125
0.2500  0.7500   0.0000   0.001953125
0.2500  0.8750   0.0000   0.001953125
0.3750  0.0000   0.0000   0.001953125
0.3750  0.1250   0.0000   0.001953125
0.3750  0.2500   0.0000   0.001953125
0.3750  0.3750   0.0000   0.001953125
0.3750  0.5000   0.0000   0.001953125
0.3750  0.6250   0.0000   0.001953125
0.3750  0.7500   0.0000   0.001953125
0.3750  0.8750   0.0000   0.001953125
0.5000  0.0000   0.0000   0.001953125
0.5000  0.1250   0.0000   0.001953125
0.5000  0.2500   0.0000   0.001953125
0.5000  0.3750   0.0000   0.001953125
0.5000  0.5000   0.0000   0.001953125
0.5000  0.6250   0.0000   0.001953125
0.5000  0.7500   0.0000   0.001953125
0.5000  0.8750   0.0000   0.001953125
0.6250  0.0000   0.0000   0.001953125
0.6250  0.1250   0.0000   0.001953125
0.6250  0.2500   0.0000   0.001953125
0.6250  0.3750   0.0000   0.001953125
0.6250  0.5000   0.0000   0.001953125
0.6250  0.6250   0.0000   0.001953125
0.6250  0.7500   0.0000   0.001953125
0.6250  0.8750   0.0000   0.001953125
0.7500  0.0000   0.0000   0.001953125
0.7500  0.1250   0.0000   0.001953125
0.7500  0.2500   0.0000   0.001953125
0.7500  0.3750   0.0000   0.001953125
0.7500  0.5000   0.0000   0.001953125
0.7500  0.6250   0.0000   0.001953125
0.7500  0.7500   0.0000   0.001953125
0.7500  0.8750   0.0000   0.001953125
0.8750  0.0000   0.0000   0.001953125
0.8750  0.1250   0.0000   0.001953125
0.8750  0.2500   0.0000   0.001953125
0.8750  0.3750   0.0000   0.001953125
0.8750  0.5000   0.0000   0.001953125
0.8750  0.6250   0.0000   0.001953125
0.8750  0.7500   0.0000   0.001953125
0.8750  0.8750   0.0000   0.001953125
0.0000  0.0000   0.1250   0.001953125
0.0000  0.1250   0.1250   0.001953125
0.0000  0.2500   0.1250   0.001953125
0.0000  0.3750   0.1250   0.001953125
0.0000  0.5000   0.1250   0.001953125
0.0000  0.6250   0.1250   0.001953125
0.0000  0.7500   0.1250   0.001953125
0.0000  0.8750   0.1250   0.001953125
0.1250  0.0000   0.1250   0.001953125
0.1250  0.1250   0.1250   0.001953125
0.1250  0.2500   0.1250   0.001953125
0.1250  0.3750   0.1250   0.001953125
0.1250  0.5000   0.1250   0.001953125
0.1250  0.6250   0.1250   0.001953125
0.1250  0.7500   0.1250   0.001953125
0.1250  0.8750   0.1250   0.001953125
0.2500  0.0000   0.1250   0.001953125
0.2500  0.1250   0.1250   0.001953125
0.2500  0.2500   0.1250   0.001953125
0.2500  0.3750   0.1250   0.001953125
0.2500  0.5000   0.1250   0.001953125
0.2500  0.6250   0.1250   0.001953125
0.2500  0.7500   0.1250   0.001953125
0.2500  0.8750   0.1250   0.001953125
0.3750  0.0000   0.1250   0.001953125
0.3750  0.1250   0.1250   0.001953125
0.3750  0.2500   0.1250   0.001953125
0.3750  0.3750   0.1250   0.001953125
0.3750  0.5000   0.1250   0.001953125
0.3750  0.6250   0.1250   0.001953125
0.3750  0.7500   0.1250   0.001953125
0.3750  0.8750   0.1250   0.001953125
0.5000  0.0000   0.1250   0.001953125
0.5000  0.1250   0.1250   0.001953125
0.5000  0.2500   0.1250   0.001953125
0.5000  0.3750   0.1250   0.001953125
0.5000  0.5000   0.1250   0.001953125
0.5000  0.6250   0.1250   0.001953125
0.5000  0.7500   0.1250   0.001953125
0.5000  0.8750   0.1250   0.001953125
0.6250  0.0000   0.1250   0.001953125
0.6250  0.1250   0.1250   0.001953125
0.6250  0.2500   0.1250   0.001953125
0.6250  0.3750   0.1250   0.001953125
0.6250  0.5000   0.1250   0.001953125
0.6250  0.6250   0.1250   0.001953125
0.6250  0.7500   0.1250   0.001953125
0.6250  0.8750   0.1250   0.001953125
0.7500  0.0000   0.1250   0.001953125
0.7500  0.1250   0.1250   0.001953125
0.7500  0.2500   0.1250   0.001953125
0.7500  0.3750   0.1250   0.001953125
0.7500  0.5000   0.1250   0.001953125
0.7500  0.6250   0.1250   0.001953125
0.7500  0.7500   0.1250   0.001953125
0.7500  0.8750   0.1250   0.001953125
0.8750  0.0000   0.1250   0.001953125
0.8750  0.1250   0.1250   0.001953125
0.8750  0.2500   0.1250   0.001953125
0.8750  0.3750   0.1250   0.001953125
0.8750  0.5000   0.1250   0.001953125
0.8750  0.6250   0.1250   0.001953125
0.8750  0.7500   0.1250   0.001953125
0.8750  0.8750   0.1250   0.001953125
0.0000  0.0000   0.2500   0.001953125
0.0000  0.1250   0.2500   0.001953125
0.0000  0.2500   0.2500   0.001953125
0.0000  0.3750   0.2500   0.001953125
0.0000  0.5000   0.2500   0.001953125
0.0000  0.6250   0.2500   0.001953125
0.0000  0.7500   0.2500   0.001953125
0.0000  0.8750   0.2500   0.001953125
0.1250  0.0000   0.2500   0.001953125
0.1250  0.1250   0.2500   0.001953125
0.1250  0.2500   0.2500   0.001953125
0.1250  0.3750   0.2500   0.001953125
0.1250  0.5000   0.2500   0.001953125
0.1250  0.6250   0.2500   0.001953125
0.1250  0.7500   0.2500   0.001953125
0.1250  0.8750   0.2500   0.001953125
0.2500  0.0000   0.2500   0.001953125
0.2500  0.1250   0.2500   0.001953125
0.2500  0.2500   0.2500   0.001953125
0.2500  0.3750   0.2500   0.001953125
0.2500  0.5000   0.2500   0.001953125
0.2500  0.6250   0.2500   0.001953125
0.2500  0.7500   0.2500   0.001953125
0.2500  0.8750   0.2500   0.001953125
0.3750  0.0000   0.2500   0.001953125
0.3750  0.1250   0.2500   0.001953125
0.3750  0.2500   0.2500   0.001953125
0.3750  0.3750   0.2500   0.001953125
0.3750  0.5000   0.2500   0.001953125
0.3750  0.6250   0.2500   0.001953125
0.3750  0.7500   0.2500   0.001953125
0.3750  0.8750   0.2500   0.001953125
0.5000  0.0000   0.2500   0.001953125
0.5000  0.1250   0.2500   0.001953125
0.5000  0.2500   0.2500   0.001953125
0.5000  0.3750   0.2500   0.001953125
0.5000  0.5000   0.2500   0.001953125
0.5000  0.6250   0.2500   0.001953125
0.5000  0.7500   0.2500   0.001953125
0.5000  0.8750   0.2500   0.001953125
0.6250  0.0000   0.2500   0.001953125
0.6250  0.1250   0.2500   0.001953125
0.6250  0.2500   0.2500   0.001953125
0.6250  0.3750   0.2500   0.001953125
0.6250  0.5000   0.2500   0.001953125
0.6250  0.6250   0.2500   0.001953125
0.6250  0.7500   0.2500   0.001953125
0.6250  0.8750   0.2500   0.001953125
0.7500  0.0000   0.2500   0.001953125
0.7500  0.1250   0.2500   0.001953125
0.7500  0.2500   0.2500   0.001953125
0.7500  0.3750   0.2500   0.001953125
0.7500  0.5000   0.2500   0.001953125
0.7500  0.6250   0.2500   0.001953125
0.7500  0.7500   0.2500   0.001953125
0.7500  0.8750   0.2500   0.001953125
0.8750  0.0000   0.2500   0.001953125
0.8750  0.1250   0.2500   0.001953125
0.8750  0.2500   0.2500   0.001953125
0.8750  0.3750   0.2500   0.001953125
0.8750  0.5000   0.2500   0.001953125
0.8750  0.6250   0.2500   0.001953125
0.8750  0.7500   0.2500   0.001953125
0.8750  0.8750   0.2500   0.001953125
0.0000  0.0000   0.3750   0.001953125
0.0000  0.1250   0.3750   0.001953125
0.0000  0.2500   0.3750   0.001953125
0.0000  0.3750   0.3750   0.001953125
0.0000  0.5000   0.3750   0.001953125
0.0000  0.6250   0.3750   0.001953125
0.0000  0.7500   0.3750   0.001953125
0.0000  0.8750   0.3750   0.001953125
0.1250  0.0000   0.3750   0.001953125
0.1250  0.1250   0.3750   0.001953125
0.1250  0.2500   0.3750   0.001953125
0.1250  0.3750   0.3750   0.001953125
0.1250  0.5000   0.3750   0.001953125
0.1250  0.6250   0.3750   0.001953125
0.1250  0.7500   0.3750   0.001953125
0.1250  0.8750   0.3750   0.001953125
0.2500  0.0000   0.3750   0.001953125
0.2500  0.1250   0.3750   0.001953125
0.2500  0.2500   0.3750   0.001953125
0.2500  0.3750   0.3750   0.001953125
0.2500  0.5000   0.3750   0.001953125
0.2500  0.6250   0.3750   0.001953125
0.2500  0.7500   0.3750   0.001953125
0.2500  0.8750   0.3750   0.001953125
0.3750  0.0000   0.3750   0.001953125
0.3750  0.1250   0.3750   0.001953125
0.3750  0.2500   0.3750   0.001953125
0.3750  0.3750   0.3750   0.001953125
0.3750  0.5000   0.3750   0.001953125
0.3750  0.6250   0.3750   0.001953125
0.3750  0.7500   0.3750   0.001953125
0.3750  0.8750   0.3750   0.001953125
0.5000  0.0000   0.3750   0.001953125
0.5000  0.1250   0.3750   0.001953125
0.5000  0.2500   0.3750   0.001953125
0.5000  0.3750   0.3750   0.001953125
0.5000  0.5000   0.3750   0.001953125
0.5000  0.6250   0.3750   0.001953125
0.5000  0.7500   0.3750   0.001953125
0.5000  0.8750   0.3750   0.001953125
0.6250  0.0000   0.3750   0.001953125
0.6250  0.1250   0.3750   0.001953125
0.6250  0.2500   0.3750   0.001953125
0.6250  0.3750   0.3750   0.001953125
0.6250  0.5000   0.3750   0.001953125
0.6250  0.6250   0.3750   0.001953125
0.6250  0.7500   0.3750   0.001953125
0.6250  0.8750   0.3750   0.001953125
0.7500  0.0000   0.3750   0.001953125
0.7500  0.1250   0.3750   0.001953125
0.7500  0.2500   0.3750   0.001953125
0.7500  0.3750   0.3750   0.001953125
0.7500  0.5000   0.3750   0.001953125
0.7500  0.6250   0.3750   0.001953125
0.7500  0.7500   0.3750   0.001953125
0.7500  0.8750   0.3750   0.001953125
0.8750  0.0000   0.3750   0.001953125
0.8750  0.1250   0.3750   0.001953125
0.8750  0.2500   0.3750   0.001953125
0.8750  0.3750   0.3750   0.001953125
0.8750  0.5000   0.3750   0.001953125
0.8750  0.6250   0.3750   0.001953125
0.8750  0.7500   0.3750   0.001953125
0.8750  0.8750   0.3750   0.001953125
0.0000  0.0000   0.5000   0.001953125
0.0000  0.1250   0.5000   0.001953125
0.0000  0.2500   0.5000   0.001953125
0.0000  0.3750   0.5000   0.001953125
0.0000  0.5000   0.5000   0.001953125
0.0000  0.6250   0.5000   0.001953125
0.0000  0.7500   0.5000   0.001953125
0.0000  0.8750   0.5000   0.001953125
0.1250  0.0000   0.5000   0.001953125
0.1250  0.1250   0.5000   0.001953125
0.1250  0.2500   0.5000   0.001953125
0.1250  0.3750   0.5000   0.001953125
0.1250  0.5000   0.5000   0.001953125
0.1250  0.6250   0.5000   0.001953125
0.1250  0.7500   0.5000   0.001953125
0.1250  0.8750   0.5000   0.001953125
0.2500  0.0000   0.5000   0.001953125
0.2500  0.1250   0.5000   0.001953125
0.2500  0.2500   0.5000   0.001953125
0.2500  0.3750   0.5000   0.001953125
0.2500  0.5000   0.5000   0.001953125
0.2500  0.6250   0.5000   0.001953125
0.2500  0.7500   0.5000   0.001953125
0.2500  0.8750   0.5000   0.001953125
0.3750  0.0000   0.5000   0.001953125
0.3750  0.1250   0.5000   0.001953125
0.3750  0.2500   0.5000   0.001953125
0.3750  0.3750   0.5000   0.001953125
0.3750  0.5000   0.5000   0.001953125
0.3750  0.6250   0.5000   0.001953125
0.3750  0.7500   0.5000   0.001953125
0.3750  0.8750   0.5000   0.001953125
0.5000  0.0000   0.5000   0.001953125
0.5000  0.1250   0.5000   0.001953125
0.5000  0.2500   0.5000   0.001953125
0.5000  0.3750   0.5000   0.001953125
0.5000  0.5000   0.5000   0.001953125
0.5000  0.6250   0.5000   0.001953125
0.5000  0.7500   0.5000   0.001953125
0.5000  0.8750   0.5000   0.001953125
0.6250  0.0000   0.5000   0.001953125
0.6250  0.1250   0.5000   0.001953125
0.6250  0.2500   0.5000   0.001953125
0.6250  0.3750   0.5000   0.001953125
0.6250  0.5000   0.5000   0.001953125
0.6250  0.6250   0.5000   0.001953125
0.6250  0.7500   0.5000   0.001953125
0.6250  0.8750   0.5000   0.001953125
0.7500  0.0000   0.5000   0.001953125
0.7500  0.1250   0.5000   0.001953125
0.7500  0.2500   0.5000   0.001953125
0.7500  0.3750   0.5000   0.001953125
0.7500  0.5000   0.5000   0.001953125
0.7500  0.6250   0.5000   0.001953125
0.7500  0.7500   0.5000   0.001953125
0.7500  0.8750   0.5000   0.001953125
0.8750  0.0000   0.5000   0.001953125
0.8750  0.1250   0.5000   0.001953125
0.8750  0.2500   0.5000   0.001953125
0.8750  0.3750   0.5000   0.001953125
0.8750  0.5000   0.5000   0.001953125
0.8750  0.6250   0.5000   0.001953125
0.8750  0.7500   0.5000   0.001953125
0.8750  0.8750   0.5000   0.001953125
0.0000  0.0000   0.6250   0.001953125
0.0000  0.1250   0.6250   0.001953125
0.0000  0.2500   0.6250   0.001953125
0.0000  0.3750   0.6250   0.001953125
0.0000  0.5000   0.6250   0.001953125
0.0000  0.6250   0.6250   0.001953125
0.0000  0.7500   0.6250   0.001953125
0.0000  0.8750   0.6250   0.001953125
0.1250  0.0000   0.6250   0.001953125
0.1250  0.1250   0.6250   0.001953125
0.1250  0.2500   0.6250   0.001953125
0.1250  0.3750   0.6250   0.001953125
0.1250  0.5000   0.6250   0.001953125
0.1250  0.6250   0.6250   0.001953125
0.1250  0.7500   0.6250   0.001953125
0.1250  0.8750   0.6250   0.001953125
0.2500  0.0000   0.6250   0.001953125
0.2500  0.1250   0.6250   0.001953125
0.2500  0.2500   0.6250   0.001953125
0.2500  0.3750   0.6250   0.001953125
0.2500  0.5000   0.6250   0.001953125
0.2500  0.6250   0.6250   0.001953125
0.2500  0.7500   0.6250   0.001953125
0.2500  0.8750   0.6250   0.001953125
0.3750  0.0000   0.6250   0.001953125
0.3750  0.1250   0.6250   0.001953125
0.3750  0.2500   0.6250   0.001953125
0.3750  0.3750   0.6250   0.001953125
0.3750  0.5000   0.6250   0.001953125
0.3750  0.6250   0.6250   0.001953125
0.3750  0.7500   0.6250   0.001953125
0.3750  0.8750   0.6250   0.001953125
0.5000  0.0000   0.6250   0.001953125
0.5000  0.1250   0.6250   0.001953125
0.5000  0.2500   0.6250   0.001953125
0.5000  0.3750   0.6250   0.001953125
0.5000  0.5000   0.6250   0.001953125
0.5000  0.6250   0.6250   0.001953125
0.5000  0.7500   0.6250   0.001953125
0.5000  0.8750   0.6250   0.001953125
0.6250  0.0000   0.6250   0.001953125
0.6250  0.1250   0.6250   0.001953125
0.6250  0.2500   0.6250   0.001953125
0.6250  0.3750   0.6250   0.001953125
0.6250  0.5000   0.6250   0.001953125
0.6250  0.6250   0.6250   0.001953125
0.6250  0.7500   0.6250   0.001953125
0.6250  0.8750   0.6250   0.001953125
0.7500  0.0000   0.6250   0.001953125
0.7500  0.1250   0.6250   0.001953125
0.7500  0.2500   0.6250   0.001953125
0.7500  0.3750   0.6250   0.001953125
0.7500  0.5000   0.6250   0.001953125
0.7500  0.6250   0.6250   0.001953125
0.7500  0.7500   0.6250   0.001953125
0.7500  0.8750   0.6250   0.001953125
0.8750  0.0000   0.6250   0.001953125
0.8750  0.1250   0.6250   0.001953125
0.8750  0.2500   0.6250   0.001953125
0.8750  0.3750   0.6250   0.001953125
0.8750  0.5000   0.6250   0.001953125
0.8750  0.6250   0.6250   0.001953125
0.8750  0.7500   0.6250   0.001953125
0.8750  0.8750   0.6250   0.001953125
0.0000  0.0000   0.7500   0.001953125
0.0000  0.1250   0.7500   0.001953125
0.0000  0.2500   0.7500   0.001953125
0.0000  0.3750   0.7500   0.001953125
0.0000  0.5000   0.7500   0.001953125
0.0000  0.6250   0.7500   0.001953125
0.0000  0.7500   0.7500   0.001953125
0.0000  0.8750   0.7500   0.001953125
0.1250  0.0000   0.7500   0.001953125
0.1250  0.1250   0.7500   0.001953125
0.1250  0.2500   0.7500   0.001953125
0.1250  0.3750   0.7500   0.001953125
0.1250  0.5000   0.7500   0.001953125
0.1250  0.6250   0.7500   0.001953125
0.1250  0.7500   0.7500   0.001953125
0.1250  0.8750   0.7500   0.001953125
0.2500  0.0000   0.7500   0.001953125
0.2500  0.1250   0.7500   0.001953125
0.2500  0.2500   0.7500   0.001953125
0.2500  0.3750   0.7500   0.001953125
0.2500  0.5000   0.7500   0.001953125
0.2500  0.6250   0.7500   0.001953125
0.2500  0.7500   0.7500   0.001953125
0.2500  0.8750   0.7500   0.001953125
0.3750  0.0000   0.7500   0.001953125
0.3750  0.1250   0.7500   0.001953125
0.3750  0.2500   0.7500   0.001953125
0.3750  0.3750   0.7500   0.001953125
0.3750  0.5000   0.7500   0.001953125
0.3750  0.6250   0.7500   0.001953125
0.3750  0.7500   0.7500   0.001953125
0.3750  0.8750   0.7500   0.001953125
0.5000  0.0000   0.7500   0.001953125
0.5000  0.1250   0.7500   0.001953125
0.5000  0.2500   0.7500   0.001953125
0.5000  0.3750   0.7500   0.001953125
0.5000  0.5000   0.7500   0.001953125
0.5000  0.6250   0.7500   0.001953125
0.5000  0.7500   0.7500   0.001953125
0.5000  0.8750   0.7500   0.001953125
0.6250  0.0000   0.7500   0.001953125
0.6250  0.1250   0.7500   0.001953125
0.6250  0.2500   0.7500   0.001953125
0.6250  0.3750   0.7500   0.001953125
0.6250  0.5000   0.7500   0.001953125
0.6250  0.6250   0.7500   0.001953125
0.6250  0.7500   0.7500   0.001953125
0.6250  0.8750   0.7500   0.001953125
0.7500  0.0000   0.7500   0.001953125
0.7500  0.1250   0.7500   0.001953125
0.7500  0.2500   0.7500   0.001953125
0.7500  0.3750   0.7500   0.001953125
0.7500  0.5000   0.7500   0.001953125
0.7500  0.6250   0.7500   0.001953125
0.7500  0.7500   0.7500   0.001953125
0.7500  0.8750   0.7500   0.001953125
0.8750  0.0000   0.7500   0.001953125
0.8750  0.1250   0.7500   0.001953125
0.8750  0.2500   0.7500   0.001953125
0.8750  0.3750   0.7500   0.001953125
0.8750  0.5000   0.7500   0.001953125
0.8750  0.6250   0.7500   0.001953125
0.8750  0.7500   0.7500   0.001953125
0.8750  0.8750   0.7500   0.001953125
0.0000  0.0000   0.8750   0.001953125
0.0000  0.1250   0.8750   0.001953125
0.0000  0.2500   0.8750   0.001953125
0.0000  0.3750   0.8750   0.001953125
0.0000  0.5000   0.8750   0.001953125
0.0000  0.6250   0.8750   0.001953125
0.0000  0.7500   0.8750   0.001953125
0.0000  0.8750   0.8750   0.001953125
0.1250  0.0000   0.8750   0.001953125
0.1250  0.1250   0.8750   0.001953125
0.1250  0.2500   0.8750   0.001953125
0.1250  0.3750   0.8750   0.001953125
0.1250  0.5000   0.8750   0.001953125
0.1250  0.6250   0.8750   0.001953125
0.1250  0.7500   0.8750   0.001953125
0.1250  0.8750   0.8750   0.001953125
0.2500  0.0000   0.8750   0.001953125
0.2500  0.1250   0.8750   0.001953125
0.2500  0.2500   0.8750   0.001953125
0.2500  0.3750   0.8750   0.001953125
0.2500  0.5000   0.8750   0.001953125
0.2500  0.6250   0.8750   0.001953125
0.2500  0.7500   0.8750   0.001953125
0.2500  0.8750   0.8750   0.001953125
0.3750  0.0000   0.8750   0.001953125
0.3750  0.1250   0.8750   0.001953125
0.3750  0.2500   0.8750   0.001953125
0.3750  0.3750   0.8750   0.001953125
0.3750  0.5000   0.8750   0.001953125
0.3750  0.6250   0.8750   0.001953125
0.3750  0.7500   0.8750   0.001953125
0.3750  0.8750   0.8750   0.001953125
0.5000  0.0000   0.8750   0.001953125
0.5000  0.1250   0.8750   0.001953125
0.5000  0.2500   0.8750   0.001953125
0.5000  0.3750   0.8750   0.001953125
0.5000  0.5000   0.8750   0.001953125
0.5000  0.6250   0.8750   0.001953125
0.5000  0.7500   0.8750   0.001953125
0.5000  0.8750   0.8750   0.001953125
0.6250  0.0000   0.8750   0.001953125
0.6250  0.1250   0.8750   0.001953125
0.6250  0.2500   0.8750   0.001953125
0.6250  0.3750   0.8750   0.001953125
0.6250  0.5000   0.8750   0.001953125
0.6250  0.6250   0.8750   0.001953125
0.6250  0.7500   0.8750   0.001953125
0.6250  0.8750   0.8750   0.001953125
0.7500  0.0000   0.8750   0.001953125
0.7500  0.1250   0.8750   0.001953125
0.7500  0.2500   0.8750   0.001953125
0.7500  0.3750   0.8750   0.001953125
0.7500  0.5000   0.8750   0.001953125
0.7500  0.6250   0.8750   0.001953125
0.7500  0.7500   0.8750   0.001953125
0.7500  0.8750   0.8750   0.001953125
0.8750  0.0000   0.8750   0.001953125
0.8750  0.1250   0.8750   0.001953125
0.8750  0.2500   0.8750   0.001953125
0.8750  0.3750   0.8750   0.001953125
0.8750  0.5000   0.8750   0.001953125
0.8750  0.6250   0.8750   0.001953125
0.8750  0.7500   0.8750   0.001953125
0.8750  0.8750   0.8750   0.001953125
