&inputpp
    outdir='./work/'
    prefix='Cu',
    seedname = 'Cu'
    write_unk = .true.
    write_dmn = .false.  ! additional input for symmetry-adapted mode 
     read_sym = .false.  
/
