--
&inputph
  prefix   = 'sic'
  fildvscf = 'dvscf'
  ldisp    = .true
  epsil    = .true.
  fildyn   = 'sic.dyn.xml'
  nq1=3,
  nq2=3,
  nq3=3,
  tr2_ph   =  1.0d-12
 /
