&input fildyn='sic.dyn.xml', zasr='crystal', flfrc='sic.fc' /
