 &control
    calculation='nscf'
    restart_mode='from_scratch'
    tstress = .true.
    tprnfor = .true.
    wf_collect = .true.
    prefix='H3S'
    pseudo_dir = './pseudo/'
    outdir = './work/'
 /
  &system
    ibrav = 3
    celldm(1) = 5.6103525
    nat = 4
    ntyp = 2
    ecutwfc = 45
    ecutrho = 220
    occupations='smearing'
    smearing='methfessel-paxton'
    degauss=0.02
    nbnd = 20
/
 &electrons
    conv_thr =  1.0d-11
    mixing_beta = 0.2
    diago_full_acc = .true.
 /
ATOMIC_SPECIES
 S 32.066 S.pbe-n-kjpaw_psl.1.0.0.UPF
 H 1.0079 H.pbe-kjpaw_psl.1.0.0.UPF
ATOMIC_POSITIONS {crystal}
 S     0.00000   0.00000   0.00000
 H     0.50000  -0.50000   0.00000
 H     0.00000   0.50000  -0.50000
 H     0.50000   0.00000   0.50000
K_POINTS {crystal}
 512
0.0000  0.0000   0.0000   0.001953125
0.0000  0.1250   0.0000   0.001953125
0.0000  0.2500   0.0000   0.001953125
0.0000  0.3750   0.0000   0.001953125
0.0000  0.5000   0.0000   0.001953125
0.0000  0.6250   0.0000   0.001953125
0.0000  0.7500   0.0000   0.001953125
0.0000  0.8750   0.0000   0.001953125
0.1250  0.0000   0.0000   0.001953125
0.1250  0.1250   0.0000   0.001953125
0.1250  0.2500   0.0000   0.001953125
0.1250  0.3750   0.0000   0.001953125
0.1250  0.5000   0.0000   0.001953125
0.1250  0.6250   0.0000   0.001953125
0.1250  0.7500   0.0000   0.001953125
0.1250  0.8750   0.0000   0.001953125
0.2500  0.0000   0.0000   0.001953125
0.2500  0.1250   0.0000   0.001953125
0.2500  0.2500   0.0000   0.001953125
0.2500  0.3750   0.0000   0.001953125
0.2500  0.5000   0.0000   0.001953125
0.2500  0.6250   0.0000   0.001953125
0.2500  0.7500   0.0000   0.001953125
0.2500  0.8750   0.0000   0.001953125
0.3750  0.0000   0.0000   0.001953125
0.3750  0.1250   0.0000   0.001953125
0.3750  0.2500   0.0000   0.001953125
0.3750  0.3750   0.0000   0.001953125
0.3750  0.5000   0.0000   0.001953125
0.3750  0.6250   0.0000   0.001953125
0.3750  0.7500   0.0000   0.001953125
0.3750  0.8750   0.0000   0.001953125
0.5000  0.0000   0.0000   0.001953125
0.5000  0.1250   0.0000   0.001953125
0.5000  0.2500   0.0000   0.001953125
0.5000  0.3750   0.0000   0.001953125
0.5000  0.5000   0.0000   0.001953125
0.5000  0.6250   0.0000   0.001953125
0.5000  0.7500   0.0000   0.001953125
0.5000  0.8750   0.0000   0.001953125
0.6250  0.0000   0.0000   0.001953125
0.6250  0.1250   0.0000   0.001953125
0.6250  0.2500   0.0000   0.001953125
0.6250  0.3750   0.0000   0.001953125
0.6250  0.5000   0.0000   0.001953125
0.6250  0.6250   0.0000   0.001953125
0.6250  0.7500   0.0000   0.001953125
0.6250  0.8750   0.0000   0.001953125
0.7500  0.0000   0.0000   0.001953125
0.7500  0.1250   0.0000   0.001953125
0.7500  0.2500   0.0000   0.001953125
0.7500  0.3750   0.0000   0.001953125
0.7500  0.5000   0.0000   0.001953125
0.7500  0.6250   0.0000   0.001953125
0.7500  0.7500   0.0000   0.001953125
0.7500  0.8750   0.0000   0.001953125
0.8750  0.0000   0.0000   0.001953125
0.8750  0.1250   0.0000   0.001953125
0.8750  0.2500   0.0000   0.001953125
0.8750  0.3750   0.0000   0.001953125
0.8750  0.5000   0.0000   0.001953125
0.8750  0.6250   0.0000   0.001953125
0.8750  0.7500   0.0000   0.001953125
0.8750  0.8750   0.0000   0.001953125
0.0000  0.0000   0.1250   0.001953125
0.0000  0.1250   0.1250   0.001953125
0.0000  0.2500   0.1250   0.001953125
0.0000  0.3750   0.1250   0.001953125
0.0000  0.5000   0.1250   0.001953125
0.0000  0.6250   0.1250   0.001953125
0.0000  0.7500   0.1250   0.001953125
0.0000  0.8750   0.1250   0.001953125
0.1250  0.0000   0.1250   0.001953125
0.1250  0.1250   0.1250   0.001953125
0.1250  0.2500   0.1250   0.001953125
0.1250  0.3750   0.1250   0.001953125
0.1250  0.5000   0.1250   0.001953125
0.1250  0.6250   0.1250   0.001953125
0.1250  0.7500   0.1250   0.001953125
0.1250  0.8750   0.1250   0.001953125
0.2500  0.0000   0.1250   0.001953125
0.2500  0.1250   0.1250   0.001953125
0.2500  0.2500   0.1250   0.001953125
0.2500  0.3750   0.1250   0.001953125
0.2500  0.5000   0.1250   0.001953125
0.2500  0.6250   0.1250   0.001953125
0.2500  0.7500   0.1250   0.001953125
0.2500  0.8750   0.1250   0.001953125
0.3750  0.0000   0.1250   0.001953125
0.3750  0.1250   0.1250   0.001953125
0.3750  0.2500   0.1250   0.001953125
0.3750  0.3750   0.1250   0.001953125
0.3750  0.5000   0.1250   0.001953125
0.3750  0.6250   0.1250   0.001953125
0.3750  0.7500   0.1250   0.001953125
0.3750  0.8750   0.1250   0.001953125
0.5000  0.0000   0.1250   0.001953125
0.5000  0.1250   0.1250   0.001953125
0.5000  0.2500   0.1250   0.001953125
0.5000  0.3750   0.1250   0.001953125
0.5000  0.5000   0.1250   0.001953125
0.5000  0.6250   0.1250   0.001953125
0.5000  0.7500   0.1250   0.001953125
0.5000  0.8750   0.1250   0.001953125
0.6250  0.0000   0.1250   0.001953125
0.6250  0.1250   0.1250   0.001953125
0.6250  0.2500   0.1250   0.001953125
0.6250  0.3750   0.1250   0.001953125
0.6250  0.5000   0.1250   0.001953125
0.6250  0.6250   0.1250   0.001953125
0.6250  0.7500   0.1250   0.001953125
0.6250  0.8750   0.1250   0.001953125
0.7500  0.0000   0.1250   0.001953125
0.7500  0.1250   0.1250   0.001953125
0.7500  0.2500   0.1250   0.001953125
0.7500  0.3750   0.1250   0.001953125
0.7500  0.5000   0.1250   0.001953125
0.7500  0.6250   0.1250   0.001953125
0.7500  0.7500   0.1250   0.001953125
0.7500  0.8750   0.1250   0.001953125
0.8750  0.0000   0.1250   0.001953125
0.8750  0.1250   0.1250   0.001953125
0.8750  0.2500   0.1250   0.001953125
0.8750  0.3750   0.1250   0.001953125
0.8750  0.5000   0.1250   0.001953125
0.8750  0.6250   0.1250   0.001953125
0.8750  0.7500   0.1250   0.001953125
0.8750  0.8750   0.1250   0.001953125
0.0000  0.0000   0.2500   0.001953125
0.0000  0.1250   0.2500   0.001953125
0.0000  0.2500   0.2500   0.001953125
0.0000  0.3750   0.2500   0.001953125
0.0000  0.5000   0.2500   0.001953125
0.0000  0.6250   0.2500   0.001953125
0.0000  0.7500   0.2500   0.001953125
0.0000  0.8750   0.2500   0.001953125
0.1250  0.0000   0.2500   0.001953125
0.1250  0.1250   0.2500   0.001953125
0.1250  0.2500   0.2500   0.001953125
0.1250  0.3750   0.2500   0.001953125
0.1250  0.5000   0.2500   0.001953125
0.1250  0.6250   0.2500   0.001953125
0.1250  0.7500   0.2500   0.001953125
0.1250  0.8750   0.2500   0.001953125
0.2500  0.0000   0.2500   0.001953125
0.2500  0.1250   0.2500   0.001953125
0.2500  0.2500   0.2500   0.001953125
0.2500  0.3750   0.2500   0.001953125
0.2500  0.5000   0.2500   0.001953125
0.2500  0.6250   0.2500   0.001953125
0.2500  0.7500   0.2500   0.001953125
0.2500  0.8750   0.2500   0.001953125
0.3750  0.0000   0.2500   0.001953125
0.3750  0.1250   0.2500   0.001953125
0.3750  0.2500   0.2500   0.001953125
0.3750  0.3750   0.2500   0.001953125
0.3750  0.5000   0.2500   0.001953125
0.3750  0.6250   0.2500   0.001953125
0.3750  0.7500   0.2500   0.001953125
0.3750  0.8750   0.2500   0.001953125
0.5000  0.0000   0.2500   0.001953125
0.5000  0.1250   0.2500   0.001953125
0.5000  0.2500   0.2500   0.001953125
0.5000  0.3750   0.2500   0.001953125
0.5000  0.5000   0.2500   0.001953125
0.5000  0.6250   0.2500   0.001953125
0.5000  0.7500   0.2500   0.001953125
0.5000  0.8750   0.2500   0.001953125
0.6250  0.0000   0.2500   0.001953125
0.6250  0.1250   0.2500   0.001953125
0.6250  0.2500   0.2500   0.001953125
0.6250  0.3750   0.2500   0.001953125
0.6250  0.5000   0.2500   0.001953125
0.6250  0.6250   0.2500   0.001953125
0.6250  0.7500   0.2500   0.001953125
0.6250  0.8750   0.2500   0.001953125
0.7500  0.0000   0.2500   0.001953125
0.7500  0.1250   0.2500   0.001953125
0.7500  0.2500   0.2500   0.001953125
0.7500  0.3750   0.2500   0.001953125
0.7500  0.5000   0.2500   0.001953125
0.7500  0.6250   0.2500   0.001953125
0.7500  0.7500   0.2500   0.001953125
0.7500  0.8750   0.2500   0.001953125
0.8750  0.0000   0.2500   0.001953125
0.8750  0.1250   0.2500   0.001953125
0.8750  0.2500   0.2500   0.001953125
0.8750  0.3750   0.2500   0.001953125
0.8750  0.5000   0.2500   0.001953125
0.8750  0.6250   0.2500   0.001953125
0.8750  0.7500   0.2500   0.001953125
0.8750  0.8750   0.2500   0.001953125
0.0000  0.0000   0.3750   0.001953125
0.0000  0.1250   0.3750   0.001953125
0.0000  0.2500   0.3750   0.001953125
0.0000  0.3750   0.3750   0.001953125
0.0000  0.5000   0.3750   0.001953125
0.0000  0.6250   0.3750   0.001953125
0.0000  0.7500   0.3750   0.001953125
0.0000  0.8750   0.3750   0.001953125
0.1250  0.0000   0.3750   0.001953125
0.1250  0.1250   0.3750   0.001953125
0.1250  0.2500   0.3750   0.001953125
0.1250  0.3750   0.3750   0.001953125
0.1250  0.5000   0.3750   0.001953125
0.1250  0.6250   0.3750   0.001953125
0.1250  0.7500   0.3750   0.001953125
0.1250  0.8750   0.3750   0.001953125
0.2500  0.0000   0.3750   0.001953125
0.2500  0.1250   0.3750   0.001953125
0.2500  0.2500   0.3750   0.001953125
0.2500  0.3750   0.3750   0.001953125
0.2500  0.5000   0.3750   0.001953125
0.2500  0.6250   0.3750   0.001953125
0.2500  0.7500   0.3750   0.001953125
0.2500  0.8750   0.3750   0.001953125
0.3750  0.0000   0.3750   0.001953125
0.3750  0.1250   0.3750   0.001953125
0.3750  0.2500   0.3750   0.001953125
0.3750  0.3750   0.3750   0.001953125
0.3750  0.5000   0.3750   0.001953125
0.3750  0.6250   0.3750   0.001953125
0.3750  0.7500   0.3750   0.001953125
0.3750  0.8750   0.3750   0.001953125
0.5000  0.0000   0.3750   0.001953125
0.5000  0.1250   0.3750   0.001953125
0.5000  0.2500   0.3750   0.001953125
0.5000  0.3750   0.3750   0.001953125
0.5000  0.5000   0.3750   0.001953125
0.5000  0.6250   0.3750   0.001953125
0.5000  0.7500   0.3750   0.001953125
0.5000  0.8750   0.3750   0.001953125
0.6250  0.0000   0.3750   0.001953125
0.6250  0.1250   0.3750   0.001953125
0.6250  0.2500   0.3750   0.001953125
0.6250  0.3750   0.3750   0.001953125
0.6250  0.5000   0.3750   0.001953125
0.6250  0.6250   0.3750   0.001953125
0.6250  0.7500   0.3750   0.001953125
0.6250  0.8750   0.3750   0.001953125
0.7500  0.0000   0.3750   0.001953125
0.7500  0.1250   0.3750   0.001953125
0.7500  0.2500   0.3750   0.001953125
0.7500  0.3750   0.3750   0.001953125
0.7500  0.5000   0.3750   0.001953125
0.7500  0.6250   0.3750   0.001953125
0.7500  0.7500   0.3750   0.001953125
0.7500  0.8750   0.3750   0.001953125
0.8750  0.0000   0.3750   0.001953125
0.8750  0.1250   0.3750   0.001953125
0.8750  0.2500   0.3750   0.001953125
0.8750  0.3750   0.3750   0.001953125
0.8750  0.5000   0.3750   0.001953125
0.8750  0.6250   0.3750   0.001953125
0.8750  0.7500   0.3750   0.001953125
0.8750  0.8750   0.3750   0.001953125
0.0000  0.0000   0.5000   0.001953125
0.0000  0.1250   0.5000   0.001953125
0.0000  0.2500   0.5000   0.001953125
0.0000  0.3750   0.5000   0.001953125
0.0000  0.5000   0.5000   0.001953125
0.0000  0.6250   0.5000   0.001953125
0.0000  0.7500   0.5000   0.001953125
0.0000  0.8750   0.5000   0.001953125
0.1250  0.0000   0.5000   0.001953125
0.1250  0.1250   0.5000   0.001953125
0.1250  0.2500   0.5000   0.001953125
0.1250  0.3750   0.5000   0.001953125
0.1250  0.5000   0.5000   0.001953125
0.1250  0.6250   0.5000   0.001953125
0.1250  0.7500   0.5000   0.001953125
0.1250  0.8750   0.5000   0.001953125
0.2500  0.0000   0.5000   0.001953125
0.2500  0.1250   0.5000   0.001953125
0.2500  0.2500   0.5000   0.001953125
0.2500  0.3750   0.5000   0.001953125
0.2500  0.5000   0.5000   0.001953125
0.2500  0.6250   0.5000   0.001953125
0.2500  0.7500   0.5000   0.001953125
0.2500  0.8750   0.5000   0.001953125
0.3750  0.0000   0.5000   0.001953125
0.3750  0.1250   0.5000   0.001953125
0.3750  0.2500   0.5000   0.001953125
0.3750  0.3750   0.5000   0.001953125
0.3750  0.5000   0.5000   0.001953125
0.3750  0.6250   0.5000   0.001953125
0.3750  0.7500   0.5000   0.001953125
0.3750  0.8750   0.5000   0.001953125
0.5000  0.0000   0.5000   0.001953125
0.5000  0.1250   0.5000   0.001953125
0.5000  0.2500   0.5000   0.001953125
0.5000  0.3750   0.5000   0.001953125
0.5000  0.5000   0.5000   0.001953125
0.5000  0.6250   0.5000   0.001953125
0.5000  0.7500   0.5000   0.001953125
0.5000  0.8750   0.5000   0.001953125
0.6250  0.0000   0.5000   0.001953125
0.6250  0.1250   0.5000   0.001953125
0.6250  0.2500   0.5000   0.001953125
0.6250  0.3750   0.5000   0.001953125
0.6250  0.5000   0.5000   0.001953125
0.6250  0.6250   0.5000   0.001953125
0.6250  0.7500   0.5000   0.001953125
0.6250  0.8750   0.5000   0.001953125
0.7500  0.0000   0.5000   0.001953125
0.7500  0.1250   0.5000   0.001953125
0.7500  0.2500   0.5000   0.001953125
0.7500  0.3750   0.5000   0.001953125
0.7500  0.5000   0.5000   0.001953125
0.7500  0.6250   0.5000   0.001953125
0.7500  0.7500   0.5000   0.001953125
0.7500  0.8750   0.5000   0.001953125
0.8750  0.0000   0.5000   0.001953125
0.8750  0.1250   0.5000   0.001953125
0.8750  0.2500   0.5000   0.001953125
0.8750  0.3750   0.5000   0.001953125
0.8750  0.5000   0.5000   0.001953125
0.8750  0.6250   0.5000   0.001953125
0.8750  0.7500   0.5000   0.001953125
0.8750  0.8750   0.5000   0.001953125
0.0000  0.0000   0.6250   0.001953125
0.0000  0.1250   0.6250   0.001953125
0.0000  0.2500   0.6250   0.001953125
0.0000  0.3750   0.6250   0.001953125
0.0000  0.5000   0.6250   0.001953125
0.0000  0.6250   0.6250   0.001953125
0.0000  0.7500   0.6250   0.001953125
0.0000  0.8750   0.6250   0.001953125
0.1250  0.0000   0.6250   0.001953125
0.1250  0.1250   0.6250   0.001953125
0.1250  0.2500   0.6250   0.001953125
0.1250  0.3750   0.6250   0.001953125
0.1250  0.5000   0.6250   0.001953125
0.1250  0.6250   0.6250   0.001953125
0.1250  0.7500   0.6250   0.001953125
0.1250  0.8750   0.6250   0.001953125
0.2500  0.0000   0.6250   0.001953125
0.2500  0.1250   0.6250   0.001953125
0.2500  0.2500   0.6250   0.001953125
0.2500  0.3750   0.6250   0.001953125
0.2500  0.5000   0.6250   0.001953125
0.2500  0.6250   0.6250   0.001953125
0.2500  0.7500   0.6250   0.001953125
0.2500  0.8750   0.6250   0.001953125
0.3750  0.0000   0.6250   0.001953125
0.3750  0.1250   0.6250   0.001953125
0.3750  0.2500   0.6250   0.001953125
0.3750  0.3750   0.6250   0.001953125
0.3750  0.5000   0.6250   0.001953125
0.3750  0.6250   0.6250   0.001953125
0.3750  0.7500   0.6250   0.001953125
0.3750  0.8750   0.6250   0.001953125
0.5000  0.0000   0.6250   0.001953125
0.5000  0.1250   0.6250   0.001953125
0.5000  0.2500   0.6250   0.001953125
0.5000  0.3750   0.6250   0.001953125
0.5000  0.5000   0.6250   0.001953125
0.5000  0.6250   0.6250   0.001953125
0.5000  0.7500   0.6250   0.001953125
0.5000  0.8750   0.6250   0.001953125
0.6250  0.0000   0.6250   0.001953125
0.6250  0.1250   0.6250   0.001953125
0.6250  0.2500   0.6250   0.001953125
0.6250  0.3750   0.6250   0.001953125
0.6250  0.5000   0.6250   0.001953125
0.6250  0.6250   0.6250   0.001953125
0.6250  0.7500   0.6250   0.001953125
0.6250  0.8750   0.6250   0.001953125
0.7500  0.0000   0.6250   0.001953125
0.7500  0.1250   0.6250   0.001953125
0.7500  0.2500   0.6250   0.001953125
0.7500  0.3750   0.6250   0.001953125
0.7500  0.5000   0.6250   0.001953125
0.7500  0.6250   0.6250   0.001953125
0.7500  0.7500   0.6250   0.001953125
0.7500  0.8750   0.6250   0.001953125
0.8750  0.0000   0.6250   0.001953125
0.8750  0.1250   0.6250   0.001953125
0.8750  0.2500   0.6250   0.001953125
0.8750  0.3750   0.6250   0.001953125
0.8750  0.5000   0.6250   0.001953125
0.8750  0.6250   0.6250   0.001953125
0.8750  0.7500   0.6250   0.001953125
0.8750  0.8750   0.6250   0.001953125
0.0000  0.0000   0.7500   0.001953125
0.0000  0.1250   0.7500   0.001953125
0.0000  0.2500   0.7500   0.001953125
0.0000  0.3750   0.7500   0.001953125
0.0000  0.5000   0.7500   0.001953125
0.0000  0.6250   0.7500   0.001953125
0.0000  0.7500   0.7500   0.001953125
0.0000  0.8750   0.7500   0.001953125
0.1250  0.0000   0.7500   0.001953125
0.1250  0.1250   0.7500   0.001953125
0.1250  0.2500   0.7500   0.001953125
0.1250  0.3750   0.7500   0.001953125
0.1250  0.5000   0.7500   0.001953125
0.1250  0.6250   0.7500   0.001953125
0.1250  0.7500   0.7500   0.001953125
0.1250  0.8750   0.7500   0.001953125
0.2500  0.0000   0.7500   0.001953125
0.2500  0.1250   0.7500   0.001953125
0.2500  0.2500   0.7500   0.001953125
0.2500  0.3750   0.7500   0.001953125
0.2500  0.5000   0.7500   0.001953125
0.2500  0.6250   0.7500   0.001953125
0.2500  0.7500   0.7500   0.001953125
0.2500  0.8750   0.7500   0.001953125
0.3750  0.0000   0.7500   0.001953125
0.3750  0.1250   0.7500   0.001953125
0.3750  0.2500   0.7500   0.001953125
0.3750  0.3750   0.7500   0.001953125
0.3750  0.5000   0.7500   0.001953125
0.3750  0.6250   0.7500   0.001953125
0.3750  0.7500   0.7500   0.001953125
0.3750  0.8750   0.7500   0.001953125
0.5000  0.0000   0.7500   0.001953125
0.5000  0.1250   0.7500   0.001953125
0.5000  0.2500   0.7500   0.001953125
0.5000  0.3750   0.7500   0.001953125
0.5000  0.5000   0.7500   0.001953125
0.5000  0.6250   0.7500   0.001953125
0.5000  0.7500   0.7500   0.001953125
0.5000  0.8750   0.7500   0.001953125
0.6250  0.0000   0.7500   0.001953125
0.6250  0.1250   0.7500   0.001953125
0.6250  0.2500   0.7500   0.001953125
0.6250  0.3750   0.7500   0.001953125
0.6250  0.5000   0.7500   0.001953125
0.6250  0.6250   0.7500   0.001953125
0.6250  0.7500   0.7500   0.001953125
0.6250  0.8750   0.7500   0.001953125
0.7500  0.0000   0.7500   0.001953125
0.7500  0.1250   0.7500   0.001953125
0.7500  0.2500   0.7500   0.001953125
0.7500  0.3750   0.7500   0.001953125
0.7500  0.5000   0.7500   0.001953125
0.7500  0.6250   0.7500   0.001953125
0.7500  0.7500   0.7500   0.001953125
0.7500  0.8750   0.7500   0.001953125
0.8750  0.0000   0.7500   0.001953125
0.8750  0.1250   0.7500   0.001953125
0.8750  0.2500   0.7500   0.001953125
0.8750  0.3750   0.7500   0.001953125
0.8750  0.5000   0.7500   0.001953125
0.8750  0.6250   0.7500   0.001953125
0.8750  0.7500   0.7500   0.001953125
0.8750  0.8750   0.7500   0.001953125
0.0000  0.0000   0.8750   0.001953125
0.0000  0.1250   0.8750   0.001953125
0.0000  0.2500   0.8750   0.001953125
0.0000  0.3750   0.8750   0.001953125
0.0000  0.5000   0.8750   0.001953125
0.0000  0.6250   0.8750   0.001953125
0.0000  0.7500   0.8750   0.001953125
0.0000  0.8750   0.8750   0.001953125
0.1250  0.0000   0.8750   0.001953125
0.1250  0.1250   0.8750   0.001953125
0.1250  0.2500   0.8750   0.001953125
0.1250  0.3750   0.8750   0.001953125
0.1250  0.5000   0.8750   0.001953125
0.1250  0.6250   0.8750   0.001953125
0.1250  0.7500   0.8750   0.001953125
0.1250  0.8750   0.8750   0.001953125
0.2500  0.0000   0.8750   0.001953125
0.2500  0.1250   0.8750   0.001953125
0.2500  0.2500   0.8750   0.001953125
0.2500  0.3750   0.8750   0.001953125
0.2500  0.5000   0.8750   0.001953125
0.2500  0.6250   0.8750   0.001953125
0.2500  0.7500   0.8750   0.001953125
0.2500  0.8750   0.8750   0.001953125
0.3750  0.0000   0.8750   0.001953125
0.3750  0.1250   0.8750   0.001953125
0.3750  0.2500   0.8750   0.001953125
0.3750  0.3750   0.8750   0.001953125
0.3750  0.5000   0.8750   0.001953125
0.3750  0.6250   0.8750   0.001953125
0.3750  0.7500   0.8750   0.001953125
0.3750  0.8750   0.8750   0.001953125
0.5000  0.0000   0.8750   0.001953125
0.5000  0.1250   0.8750   0.001953125
0.5000  0.2500   0.8750   0.001953125
0.5000  0.3750   0.8750   0.001953125
0.5000  0.5000   0.8750   0.001953125
0.5000  0.6250   0.8750   0.001953125
0.5000  0.7500   0.8750   0.001953125
0.5000  0.8750   0.8750   0.001953125
0.6250  0.0000   0.8750   0.001953125
0.6250  0.1250   0.8750   0.001953125
0.6250  0.2500   0.8750   0.001953125
0.6250  0.3750   0.8750   0.001953125
0.6250  0.5000   0.8750   0.001953125
0.6250  0.6250   0.8750   0.001953125
0.6250  0.7500   0.8750   0.001953125
0.6250  0.8750   0.8750   0.001953125
0.7500  0.0000   0.8750   0.001953125
0.7500  0.1250   0.8750   0.001953125
0.7500  0.2500   0.8750   0.001953125
0.7500  0.3750   0.8750   0.001953125
0.7500  0.5000   0.8750   0.001953125
0.7500  0.6250   0.8750   0.001953125
0.7500  0.7500   0.8750   0.001953125
0.7500  0.8750   0.8750   0.001953125
0.8750  0.0000   0.8750   0.001953125
0.8750  0.1250   0.8750   0.001953125
0.8750  0.2500   0.8750   0.001953125
0.8750  0.3750   0.8750   0.001953125
0.8750  0.5000   0.8750   0.001953125
0.8750  0.6250   0.8750   0.001953125
0.8750  0.7500   0.8750   0.001953125
0.8750  0.8750   0.8750   0.001953125
