&CONTROL
  calculation = 'scf',
  outdir = '.',
  pseudo_dir = '.',
  tprnfor = .true.,
  tstress = .true.,
  verbosity = 'high',
  prefix = 'FeSe'
/
&SYSTEM
! Some parameters obtained using Materials Cloud QE input generator
  ibrav = 0,
  nat   = 4,
  ntyp  = 2,
  ecutwfc = 90,
  nbnd = 36,
  occupations = 'smearing',
  smearing = 'cold',
  degauss = 0.00735,
  input_dft = 'pbe'
!  noncolin = .true.,
!  lspinorb = .true.
/
&ELECTRONS
  conv_thr = 8.D-10,
  mixing_beta = 0.4
/

CELL_PARAMETERS angstrom
  3.7650959   0.0000000   0.0000000
  0.0000000   3.7650959   0.0000000
  0.0000000   0.0000000   5.5177837

ATOMIC_SPECIES
  Fe   55.845   Fe.upf
  Se   78.960   Se.upf

ATOMIC_POSITIONS angstrom
  Fe   2.823821890  0.941273963  0.000000000
  Fe   0.941273963  2.823821890  0.000000000
  Se   2.823821890  2.823821890  4.043431891
  Se   0.941273963  0.941273963  1.474351803


K_POINTS crystal
1152
  0.00000000  0.00000000  0.00000000  8.680556e-04
  0.00000000  0.00000000  0.12500000  8.680556e-04
  0.00000000  0.00000000  0.25000000  8.680556e-04
  0.00000000  0.00000000  0.37500000  8.680556e-04
  0.00000000  0.00000000  0.50000000  8.680556e-04
  0.00000000  0.00000000  0.62500000  8.680556e-04
  0.00000000  0.00000000  0.75000000  8.680556e-04
  0.00000000  0.00000000  0.87500000  8.680556e-04
  0.00000000  0.08333333  0.00000000  8.680556e-04
  0.00000000  0.08333333  0.12500000  8.680556e-04
  0.00000000  0.08333333  0.25000000  8.680556e-04
  0.00000000  0.08333333  0.37500000  8.680556e-04
  0.00000000  0.08333333  0.50000000  8.680556e-04
  0.00000000  0.08333333  0.62500000  8.680556e-04
  0.00000000  0.08333333  0.75000000  8.680556e-04
  0.00000000  0.08333333  0.87500000  8.680556e-04
  0.00000000  0.16666667  0.00000000  8.680556e-04
  0.00000000  0.16666667  0.12500000  8.680556e-04
  0.00000000  0.16666667  0.25000000  8.680556e-04
  0.00000000  0.16666667  0.37500000  8.680556e-04
  0.00000000  0.16666667  0.50000000  8.680556e-04
  0.00000000  0.16666667  0.62500000  8.680556e-04
  0.00000000  0.16666667  0.75000000  8.680556e-04
  0.00000000  0.16666667  0.87500000  8.680556e-04
  0.00000000  0.25000000  0.00000000  8.680556e-04
  0.00000000  0.25000000  0.12500000  8.680556e-04
  0.00000000  0.25000000  0.25000000  8.680556e-04
  0.00000000  0.25000000  0.37500000  8.680556e-04
  0.00000000  0.25000000  0.50000000  8.680556e-04
  0.00000000  0.25000000  0.62500000  8.680556e-04
  0.00000000  0.25000000  0.75000000  8.680556e-04
  0.00000000  0.25000000  0.87500000  8.680556e-04
  0.00000000  0.33333333  0.00000000  8.680556e-04
  0.00000000  0.33333333  0.12500000  8.680556e-04
  0.00000000  0.33333333  0.25000000  8.680556e-04
  0.00000000  0.33333333  0.37500000  8.680556e-04
  0.00000000  0.33333333  0.50000000  8.680556e-04
  0.00000000  0.33333333  0.62500000  8.680556e-04
  0.00000000  0.33333333  0.75000000  8.680556e-04
  0.00000000  0.33333333  0.87500000  8.680556e-04
  0.00000000  0.41666667  0.00000000  8.680556e-04
  0.00000000  0.41666667  0.12500000  8.680556e-04
  0.00000000  0.41666667  0.25000000  8.680556e-04
  0.00000000  0.41666667  0.37500000  8.680556e-04
  0.00000000  0.41666667  0.50000000  8.680556e-04
  0.00000000  0.41666667  0.62500000  8.680556e-04
  0.00000000  0.41666667  0.75000000  8.680556e-04
  0.00000000  0.41666667  0.87500000  8.680556e-04
  0.00000000  0.50000000  0.00000000  8.680556e-04
  0.00000000  0.50000000  0.12500000  8.680556e-04
  0.00000000  0.50000000  0.25000000  8.680556e-04
  0.00000000  0.50000000  0.37500000  8.680556e-04
  0.00000000  0.50000000  0.50000000  8.680556e-04
  0.00000000  0.50000000  0.62500000  8.680556e-04
  0.00000000  0.50000000  0.75000000  8.680556e-04
  0.00000000  0.50000000  0.87500000  8.680556e-04
  0.00000000  0.58333333  0.00000000  8.680556e-04
  0.00000000  0.58333333  0.12500000  8.680556e-04
  0.00000000  0.58333333  0.25000000  8.680556e-04
  0.00000000  0.58333333  0.37500000  8.680556e-04
  0.00000000  0.58333333  0.50000000  8.680556e-04
  0.00000000  0.58333333  0.62500000  8.680556e-04
  0.00000000  0.58333333  0.75000000  8.680556e-04
  0.00000000  0.58333333  0.87500000  8.680556e-04
  0.00000000  0.66666667  0.00000000  8.680556e-04
  0.00000000  0.66666667  0.12500000  8.680556e-04
  0.00000000  0.66666667  0.25000000  8.680556e-04
  0.00000000  0.66666667  0.37500000  8.680556e-04
  0.00000000  0.66666667  0.50000000  8.680556e-04
  0.00000000  0.66666667  0.62500000  8.680556e-04
  0.00000000  0.66666667  0.75000000  8.680556e-04
  0.00000000  0.66666667  0.87500000  8.680556e-04
  0.00000000  0.75000000  0.00000000  8.680556e-04
  0.00000000  0.75000000  0.12500000  8.680556e-04
  0.00000000  0.75000000  0.25000000  8.680556e-04
  0.00000000  0.75000000  0.37500000  8.680556e-04
  0.00000000  0.75000000  0.50000000  8.680556e-04
  0.00000000  0.75000000  0.62500000  8.680556e-04
  0.00000000  0.75000000  0.75000000  8.680556e-04
  0.00000000  0.75000000  0.87500000  8.680556e-04
  0.00000000  0.83333333  0.00000000  8.680556e-04
  0.00000000  0.83333333  0.12500000  8.680556e-04
  0.00000000  0.83333333  0.25000000  8.680556e-04
  0.00000000  0.83333333  0.37500000  8.680556e-04
  0.00000000  0.83333333  0.50000000  8.680556e-04
  0.00000000  0.83333333  0.62500000  8.680556e-04
  0.00000000  0.83333333  0.75000000  8.680556e-04
  0.00000000  0.83333333  0.87500000  8.680556e-04
  0.00000000  0.91666667  0.00000000  8.680556e-04
  0.00000000  0.91666667  0.12500000  8.680556e-04
  0.00000000  0.91666667  0.25000000  8.680556e-04
  0.00000000  0.91666667  0.37500000  8.680556e-04
  0.00000000  0.91666667  0.50000000  8.680556e-04
  0.00000000  0.91666667  0.62500000  8.680556e-04
  0.00000000  0.91666667  0.75000000  8.680556e-04
  0.00000000  0.91666667  0.87500000  8.680556e-04
  0.08333333  0.00000000  0.00000000  8.680556e-04
  0.08333333  0.00000000  0.12500000  8.680556e-04
  0.08333333  0.00000000  0.25000000  8.680556e-04
  0.08333333  0.00000000  0.37500000  8.680556e-04
  0.08333333  0.00000000  0.50000000  8.680556e-04
  0.08333333  0.00000000  0.62500000  8.680556e-04
  0.08333333  0.00000000  0.75000000  8.680556e-04
  0.08333333  0.00000000  0.87500000  8.680556e-04
  0.08333333  0.08333333  0.00000000  8.680556e-04
  0.08333333  0.08333333  0.12500000  8.680556e-04
  0.08333333  0.08333333  0.25000000  8.680556e-04
  0.08333333  0.08333333  0.37500000  8.680556e-04
  0.08333333  0.08333333  0.50000000  8.680556e-04
  0.08333333  0.08333333  0.62500000  8.680556e-04
  0.08333333  0.08333333  0.75000000  8.680556e-04
  0.08333333  0.08333333  0.87500000  8.680556e-04
  0.08333333  0.16666667  0.00000000  8.680556e-04
  0.08333333  0.16666667  0.12500000  8.680556e-04
  0.08333333  0.16666667  0.25000000  8.680556e-04
  0.08333333  0.16666667  0.37500000  8.680556e-04
  0.08333333  0.16666667  0.50000000  8.680556e-04
  0.08333333  0.16666667  0.62500000  8.680556e-04
  0.08333333  0.16666667  0.75000000  8.680556e-04
  0.08333333  0.16666667  0.87500000  8.680556e-04
  0.08333333  0.25000000  0.00000000  8.680556e-04
  0.08333333  0.25000000  0.12500000  8.680556e-04
  0.08333333  0.25000000  0.25000000  8.680556e-04
  0.08333333  0.25000000  0.37500000  8.680556e-04
  0.08333333  0.25000000  0.50000000  8.680556e-04
  0.08333333  0.25000000  0.62500000  8.680556e-04
  0.08333333  0.25000000  0.75000000  8.680556e-04
  0.08333333  0.25000000  0.87500000  8.680556e-04
  0.08333333  0.33333333  0.00000000  8.680556e-04
  0.08333333  0.33333333  0.12500000  8.680556e-04
  0.08333333  0.33333333  0.25000000  8.680556e-04
  0.08333333  0.33333333  0.37500000  8.680556e-04
  0.08333333  0.33333333  0.50000000  8.680556e-04
  0.08333333  0.33333333  0.62500000  8.680556e-04
  0.08333333  0.33333333  0.75000000  8.680556e-04
  0.08333333  0.33333333  0.87500000  8.680556e-04
  0.08333333  0.41666667  0.00000000  8.680556e-04
  0.08333333  0.41666667  0.12500000  8.680556e-04
  0.08333333  0.41666667  0.25000000  8.680556e-04
  0.08333333  0.41666667  0.37500000  8.680556e-04
  0.08333333  0.41666667  0.50000000  8.680556e-04
  0.08333333  0.41666667  0.62500000  8.680556e-04
  0.08333333  0.41666667  0.75000000  8.680556e-04
  0.08333333  0.41666667  0.87500000  8.680556e-04
  0.08333333  0.50000000  0.00000000  8.680556e-04
  0.08333333  0.50000000  0.12500000  8.680556e-04
  0.08333333  0.50000000  0.25000000  8.680556e-04
  0.08333333  0.50000000  0.37500000  8.680556e-04
  0.08333333  0.50000000  0.50000000  8.680556e-04
  0.08333333  0.50000000  0.62500000  8.680556e-04
  0.08333333  0.50000000  0.75000000  8.680556e-04
  0.08333333  0.50000000  0.87500000  8.680556e-04
  0.08333333  0.58333333  0.00000000  8.680556e-04
  0.08333333  0.58333333  0.12500000  8.680556e-04
  0.08333333  0.58333333  0.25000000  8.680556e-04
  0.08333333  0.58333333  0.37500000  8.680556e-04
  0.08333333  0.58333333  0.50000000  8.680556e-04
  0.08333333  0.58333333  0.62500000  8.680556e-04
  0.08333333  0.58333333  0.75000000  8.680556e-04
  0.08333333  0.58333333  0.87500000  8.680556e-04
  0.08333333  0.66666667  0.00000000  8.680556e-04
  0.08333333  0.66666667  0.12500000  8.680556e-04
  0.08333333  0.66666667  0.25000000  8.680556e-04
  0.08333333  0.66666667  0.37500000  8.680556e-04
  0.08333333  0.66666667  0.50000000  8.680556e-04
  0.08333333  0.66666667  0.62500000  8.680556e-04
  0.08333333  0.66666667  0.75000000  8.680556e-04
  0.08333333  0.66666667  0.87500000  8.680556e-04
  0.08333333  0.75000000  0.00000000  8.680556e-04
  0.08333333  0.75000000  0.12500000  8.680556e-04
  0.08333333  0.75000000  0.25000000  8.680556e-04
  0.08333333  0.75000000  0.37500000  8.680556e-04
  0.08333333  0.75000000  0.50000000  8.680556e-04
  0.08333333  0.75000000  0.62500000  8.680556e-04
  0.08333333  0.75000000  0.75000000  8.680556e-04
  0.08333333  0.75000000  0.87500000  8.680556e-04
  0.08333333  0.83333333  0.00000000  8.680556e-04
  0.08333333  0.83333333  0.12500000  8.680556e-04
  0.08333333  0.83333333  0.25000000  8.680556e-04
  0.08333333  0.83333333  0.37500000  8.680556e-04
  0.08333333  0.83333333  0.50000000  8.680556e-04
  0.08333333  0.83333333  0.62500000  8.680556e-04
  0.08333333  0.83333333  0.75000000  8.680556e-04
  0.08333333  0.83333333  0.87500000  8.680556e-04
  0.08333333  0.91666667  0.00000000  8.680556e-04
  0.08333333  0.91666667  0.12500000  8.680556e-04
  0.08333333  0.91666667  0.25000000  8.680556e-04
  0.08333333  0.91666667  0.37500000  8.680556e-04
  0.08333333  0.91666667  0.50000000  8.680556e-04
  0.08333333  0.91666667  0.62500000  8.680556e-04
  0.08333333  0.91666667  0.75000000  8.680556e-04
  0.08333333  0.91666667  0.87500000  8.680556e-04
  0.16666667  0.00000000  0.00000000  8.680556e-04
  0.16666667  0.00000000  0.12500000  8.680556e-04
  0.16666667  0.00000000  0.25000000  8.680556e-04
  0.16666667  0.00000000  0.37500000  8.680556e-04
  0.16666667  0.00000000  0.50000000  8.680556e-04
  0.16666667  0.00000000  0.62500000  8.680556e-04
  0.16666667  0.00000000  0.75000000  8.680556e-04
  0.16666667  0.00000000  0.87500000  8.680556e-04
  0.16666667  0.08333333  0.00000000  8.680556e-04
  0.16666667  0.08333333  0.12500000  8.680556e-04
  0.16666667  0.08333333  0.25000000  8.680556e-04
  0.16666667  0.08333333  0.37500000  8.680556e-04
  0.16666667  0.08333333  0.50000000  8.680556e-04
  0.16666667  0.08333333  0.62500000  8.680556e-04
  0.16666667  0.08333333  0.75000000  8.680556e-04
  0.16666667  0.08333333  0.87500000  8.680556e-04
  0.16666667  0.16666667  0.00000000  8.680556e-04
  0.16666667  0.16666667  0.12500000  8.680556e-04
  0.16666667  0.16666667  0.25000000  8.680556e-04
  0.16666667  0.16666667  0.37500000  8.680556e-04
  0.16666667  0.16666667  0.50000000  8.680556e-04
  0.16666667  0.16666667  0.62500000  8.680556e-04
  0.16666667  0.16666667  0.75000000  8.680556e-04
  0.16666667  0.16666667  0.87500000  8.680556e-04
  0.16666667  0.25000000  0.00000000  8.680556e-04
  0.16666667  0.25000000  0.12500000  8.680556e-04
  0.16666667  0.25000000  0.25000000  8.680556e-04
  0.16666667  0.25000000  0.37500000  8.680556e-04
  0.16666667  0.25000000  0.50000000  8.680556e-04
  0.16666667  0.25000000  0.62500000  8.680556e-04
  0.16666667  0.25000000  0.75000000  8.680556e-04
  0.16666667  0.25000000  0.87500000  8.680556e-04
  0.16666667  0.33333333  0.00000000  8.680556e-04
  0.16666667  0.33333333  0.12500000  8.680556e-04
  0.16666667  0.33333333  0.25000000  8.680556e-04
  0.16666667  0.33333333  0.37500000  8.680556e-04
  0.16666667  0.33333333  0.50000000  8.680556e-04
  0.16666667  0.33333333  0.62500000  8.680556e-04
  0.16666667  0.33333333  0.75000000  8.680556e-04
  0.16666667  0.33333333  0.87500000  8.680556e-04
  0.16666667  0.41666667  0.00000000  8.680556e-04
  0.16666667  0.41666667  0.12500000  8.680556e-04
  0.16666667  0.41666667  0.25000000  8.680556e-04
  0.16666667  0.41666667  0.37500000  8.680556e-04
  0.16666667  0.41666667  0.50000000  8.680556e-04
  0.16666667  0.41666667  0.62500000  8.680556e-04
  0.16666667  0.41666667  0.75000000  8.680556e-04
  0.16666667  0.41666667  0.87500000  8.680556e-04
  0.16666667  0.50000000  0.00000000  8.680556e-04
  0.16666667  0.50000000  0.12500000  8.680556e-04
  0.16666667  0.50000000  0.25000000  8.680556e-04
  0.16666667  0.50000000  0.37500000  8.680556e-04
  0.16666667  0.50000000  0.50000000  8.680556e-04
  0.16666667  0.50000000  0.62500000  8.680556e-04
  0.16666667  0.50000000  0.75000000  8.680556e-04
  0.16666667  0.50000000  0.87500000  8.680556e-04
  0.16666667  0.58333333  0.00000000  8.680556e-04
  0.16666667  0.58333333  0.12500000  8.680556e-04
  0.16666667  0.58333333  0.25000000  8.680556e-04
  0.16666667  0.58333333  0.37500000  8.680556e-04
  0.16666667  0.58333333  0.50000000  8.680556e-04
  0.16666667  0.58333333  0.62500000  8.680556e-04
  0.16666667  0.58333333  0.75000000  8.680556e-04
  0.16666667  0.58333333  0.87500000  8.680556e-04
  0.16666667  0.66666667  0.00000000  8.680556e-04
  0.16666667  0.66666667  0.12500000  8.680556e-04
  0.16666667  0.66666667  0.25000000  8.680556e-04
  0.16666667  0.66666667  0.37500000  8.680556e-04
  0.16666667  0.66666667  0.50000000  8.680556e-04
  0.16666667  0.66666667  0.62500000  8.680556e-04
  0.16666667  0.66666667  0.75000000  8.680556e-04
  0.16666667  0.66666667  0.87500000  8.680556e-04
  0.16666667  0.75000000  0.00000000  8.680556e-04
  0.16666667  0.75000000  0.12500000  8.680556e-04
  0.16666667  0.75000000  0.25000000  8.680556e-04
  0.16666667  0.75000000  0.37500000  8.680556e-04
  0.16666667  0.75000000  0.50000000  8.680556e-04
  0.16666667  0.75000000  0.62500000  8.680556e-04
  0.16666667  0.75000000  0.75000000  8.680556e-04
  0.16666667  0.75000000  0.87500000  8.680556e-04
  0.16666667  0.83333333  0.00000000  8.680556e-04
  0.16666667  0.83333333  0.12500000  8.680556e-04
  0.16666667  0.83333333  0.25000000  8.680556e-04
  0.16666667  0.83333333  0.37500000  8.680556e-04
  0.16666667  0.83333333  0.50000000  8.680556e-04
  0.16666667  0.83333333  0.62500000  8.680556e-04
  0.16666667  0.83333333  0.75000000  8.680556e-04
  0.16666667  0.83333333  0.87500000  8.680556e-04
  0.16666667  0.91666667  0.00000000  8.680556e-04
  0.16666667  0.91666667  0.12500000  8.680556e-04
  0.16666667  0.91666667  0.25000000  8.680556e-04
  0.16666667  0.91666667  0.37500000  8.680556e-04
  0.16666667  0.91666667  0.50000000  8.680556e-04
  0.16666667  0.91666667  0.62500000  8.680556e-04
  0.16666667  0.91666667  0.75000000  8.680556e-04
  0.16666667  0.91666667  0.87500000  8.680556e-04
  0.25000000  0.00000000  0.00000000  8.680556e-04
  0.25000000  0.00000000  0.12500000  8.680556e-04
  0.25000000  0.00000000  0.25000000  8.680556e-04
  0.25000000  0.00000000  0.37500000  8.680556e-04
  0.25000000  0.00000000  0.50000000  8.680556e-04
  0.25000000  0.00000000  0.62500000  8.680556e-04
  0.25000000  0.00000000  0.75000000  8.680556e-04
  0.25000000  0.00000000  0.87500000  8.680556e-04
  0.25000000  0.08333333  0.00000000  8.680556e-04
  0.25000000  0.08333333  0.12500000  8.680556e-04
  0.25000000  0.08333333  0.25000000  8.680556e-04
  0.25000000  0.08333333  0.37500000  8.680556e-04
  0.25000000  0.08333333  0.50000000  8.680556e-04
  0.25000000  0.08333333  0.62500000  8.680556e-04
  0.25000000  0.08333333  0.75000000  8.680556e-04
  0.25000000  0.08333333  0.87500000  8.680556e-04
  0.25000000  0.16666667  0.00000000  8.680556e-04
  0.25000000  0.16666667  0.12500000  8.680556e-04
  0.25000000  0.16666667  0.25000000  8.680556e-04
  0.25000000  0.16666667  0.37500000  8.680556e-04
  0.25000000  0.16666667  0.50000000  8.680556e-04
  0.25000000  0.16666667  0.62500000  8.680556e-04
  0.25000000  0.16666667  0.75000000  8.680556e-04
  0.25000000  0.16666667  0.87500000  8.680556e-04
  0.25000000  0.25000000  0.00000000  8.680556e-04
  0.25000000  0.25000000  0.12500000  8.680556e-04
  0.25000000  0.25000000  0.25000000  8.680556e-04
  0.25000000  0.25000000  0.37500000  8.680556e-04
  0.25000000  0.25000000  0.50000000  8.680556e-04
  0.25000000  0.25000000  0.62500000  8.680556e-04
  0.25000000  0.25000000  0.75000000  8.680556e-04
  0.25000000  0.25000000  0.87500000  8.680556e-04
  0.25000000  0.33333333  0.00000000  8.680556e-04
  0.25000000  0.33333333  0.12500000  8.680556e-04
  0.25000000  0.33333333  0.25000000  8.680556e-04
  0.25000000  0.33333333  0.37500000  8.680556e-04
  0.25000000  0.33333333  0.50000000  8.680556e-04
  0.25000000  0.33333333  0.62500000  8.680556e-04
  0.25000000  0.33333333  0.75000000  8.680556e-04
  0.25000000  0.33333333  0.87500000  8.680556e-04
  0.25000000  0.41666667  0.00000000  8.680556e-04
  0.25000000  0.41666667  0.12500000  8.680556e-04
  0.25000000  0.41666667  0.25000000  8.680556e-04
  0.25000000  0.41666667  0.37500000  8.680556e-04
  0.25000000  0.41666667  0.50000000  8.680556e-04
  0.25000000  0.41666667  0.62500000  8.680556e-04
  0.25000000  0.41666667  0.75000000  8.680556e-04
  0.25000000  0.41666667  0.87500000  8.680556e-04
  0.25000000  0.50000000  0.00000000  8.680556e-04
  0.25000000  0.50000000  0.12500000  8.680556e-04
  0.25000000  0.50000000  0.25000000  8.680556e-04
  0.25000000  0.50000000  0.37500000  8.680556e-04
  0.25000000  0.50000000  0.50000000  8.680556e-04
  0.25000000  0.50000000  0.62500000  8.680556e-04
  0.25000000  0.50000000  0.75000000  8.680556e-04
  0.25000000  0.50000000  0.87500000  8.680556e-04
  0.25000000  0.58333333  0.00000000  8.680556e-04
  0.25000000  0.58333333  0.12500000  8.680556e-04
  0.25000000  0.58333333  0.25000000  8.680556e-04
  0.25000000  0.58333333  0.37500000  8.680556e-04
  0.25000000  0.58333333  0.50000000  8.680556e-04
  0.25000000  0.58333333  0.62500000  8.680556e-04
  0.25000000  0.58333333  0.75000000  8.680556e-04
  0.25000000  0.58333333  0.87500000  8.680556e-04
  0.25000000  0.66666667  0.00000000  8.680556e-04
  0.25000000  0.66666667  0.12500000  8.680556e-04
  0.25000000  0.66666667  0.25000000  8.680556e-04
  0.25000000  0.66666667  0.37500000  8.680556e-04
  0.25000000  0.66666667  0.50000000  8.680556e-04
  0.25000000  0.66666667  0.62500000  8.680556e-04
  0.25000000  0.66666667  0.75000000  8.680556e-04
  0.25000000  0.66666667  0.87500000  8.680556e-04
  0.25000000  0.75000000  0.00000000  8.680556e-04
  0.25000000  0.75000000  0.12500000  8.680556e-04
  0.25000000  0.75000000  0.25000000  8.680556e-04
  0.25000000  0.75000000  0.37500000  8.680556e-04
  0.25000000  0.75000000  0.50000000  8.680556e-04
  0.25000000  0.75000000  0.62500000  8.680556e-04
  0.25000000  0.75000000  0.75000000  8.680556e-04
  0.25000000  0.75000000  0.87500000  8.680556e-04
  0.25000000  0.83333333  0.00000000  8.680556e-04
  0.25000000  0.83333333  0.12500000  8.680556e-04
  0.25000000  0.83333333  0.25000000  8.680556e-04
  0.25000000  0.83333333  0.37500000  8.680556e-04
  0.25000000  0.83333333  0.50000000  8.680556e-04
  0.25000000  0.83333333  0.62500000  8.680556e-04
  0.25000000  0.83333333  0.75000000  8.680556e-04
  0.25000000  0.83333333  0.87500000  8.680556e-04
  0.25000000  0.91666667  0.00000000  8.680556e-04
  0.25000000  0.91666667  0.12500000  8.680556e-04
  0.25000000  0.91666667  0.25000000  8.680556e-04
  0.25000000  0.91666667  0.37500000  8.680556e-04
  0.25000000  0.91666667  0.50000000  8.680556e-04
  0.25000000  0.91666667  0.62500000  8.680556e-04
  0.25000000  0.91666667  0.75000000  8.680556e-04
  0.25000000  0.91666667  0.87500000  8.680556e-04
  0.33333333  0.00000000  0.00000000  8.680556e-04
  0.33333333  0.00000000  0.12500000  8.680556e-04
  0.33333333  0.00000000  0.25000000  8.680556e-04
  0.33333333  0.00000000  0.37500000  8.680556e-04
  0.33333333  0.00000000  0.50000000  8.680556e-04
  0.33333333  0.00000000  0.62500000  8.680556e-04
  0.33333333  0.00000000  0.75000000  8.680556e-04
  0.33333333  0.00000000  0.87500000  8.680556e-04
  0.33333333  0.08333333  0.00000000  8.680556e-04
  0.33333333  0.08333333  0.12500000  8.680556e-04
  0.33333333  0.08333333  0.25000000  8.680556e-04
  0.33333333  0.08333333  0.37500000  8.680556e-04
  0.33333333  0.08333333  0.50000000  8.680556e-04
  0.33333333  0.08333333  0.62500000  8.680556e-04
  0.33333333  0.08333333  0.75000000  8.680556e-04
  0.33333333  0.08333333  0.87500000  8.680556e-04
  0.33333333  0.16666667  0.00000000  8.680556e-04
  0.33333333  0.16666667  0.12500000  8.680556e-04
  0.33333333  0.16666667  0.25000000  8.680556e-04
  0.33333333  0.16666667  0.37500000  8.680556e-04
  0.33333333  0.16666667  0.50000000  8.680556e-04
  0.33333333  0.16666667  0.62500000  8.680556e-04
  0.33333333  0.16666667  0.75000000  8.680556e-04
  0.33333333  0.16666667  0.87500000  8.680556e-04
  0.33333333  0.25000000  0.00000000  8.680556e-04
  0.33333333  0.25000000  0.12500000  8.680556e-04
  0.33333333  0.25000000  0.25000000  8.680556e-04
  0.33333333  0.25000000  0.37500000  8.680556e-04
  0.33333333  0.25000000  0.50000000  8.680556e-04
  0.33333333  0.25000000  0.62500000  8.680556e-04
  0.33333333  0.25000000  0.75000000  8.680556e-04
  0.33333333  0.25000000  0.87500000  8.680556e-04
  0.33333333  0.33333333  0.00000000  8.680556e-04
  0.33333333  0.33333333  0.12500000  8.680556e-04
  0.33333333  0.33333333  0.25000000  8.680556e-04
  0.33333333  0.33333333  0.37500000  8.680556e-04
  0.33333333  0.33333333  0.50000000  8.680556e-04
  0.33333333  0.33333333  0.62500000  8.680556e-04
  0.33333333  0.33333333  0.75000000  8.680556e-04
  0.33333333  0.33333333  0.87500000  8.680556e-04
  0.33333333  0.41666667  0.00000000  8.680556e-04
  0.33333333  0.41666667  0.12500000  8.680556e-04
  0.33333333  0.41666667  0.25000000  8.680556e-04
  0.33333333  0.41666667  0.37500000  8.680556e-04
  0.33333333  0.41666667  0.50000000  8.680556e-04
  0.33333333  0.41666667  0.62500000  8.680556e-04
  0.33333333  0.41666667  0.75000000  8.680556e-04
  0.33333333  0.41666667  0.87500000  8.680556e-04
  0.33333333  0.50000000  0.00000000  8.680556e-04
  0.33333333  0.50000000  0.12500000  8.680556e-04
  0.33333333  0.50000000  0.25000000  8.680556e-04
  0.33333333  0.50000000  0.37500000  8.680556e-04
  0.33333333  0.50000000  0.50000000  8.680556e-04
  0.33333333  0.50000000  0.62500000  8.680556e-04
  0.33333333  0.50000000  0.75000000  8.680556e-04
  0.33333333  0.50000000  0.87500000  8.680556e-04
  0.33333333  0.58333333  0.00000000  8.680556e-04
  0.33333333  0.58333333  0.12500000  8.680556e-04
  0.33333333  0.58333333  0.25000000  8.680556e-04
  0.33333333  0.58333333  0.37500000  8.680556e-04
  0.33333333  0.58333333  0.50000000  8.680556e-04
  0.33333333  0.58333333  0.62500000  8.680556e-04
  0.33333333  0.58333333  0.75000000  8.680556e-04
  0.33333333  0.58333333  0.87500000  8.680556e-04
  0.33333333  0.66666667  0.00000000  8.680556e-04
  0.33333333  0.66666667  0.12500000  8.680556e-04
  0.33333333  0.66666667  0.25000000  8.680556e-04
  0.33333333  0.66666667  0.37500000  8.680556e-04
  0.33333333  0.66666667  0.50000000  8.680556e-04
  0.33333333  0.66666667  0.62500000  8.680556e-04
  0.33333333  0.66666667  0.75000000  8.680556e-04
  0.33333333  0.66666667  0.87500000  8.680556e-04
  0.33333333  0.75000000  0.00000000  8.680556e-04
  0.33333333  0.75000000  0.12500000  8.680556e-04
  0.33333333  0.75000000  0.25000000  8.680556e-04
  0.33333333  0.75000000  0.37500000  8.680556e-04
  0.33333333  0.75000000  0.50000000  8.680556e-04
  0.33333333  0.75000000  0.62500000  8.680556e-04
  0.33333333  0.75000000  0.75000000  8.680556e-04
  0.33333333  0.75000000  0.87500000  8.680556e-04
  0.33333333  0.83333333  0.00000000  8.680556e-04
  0.33333333  0.83333333  0.12500000  8.680556e-04
  0.33333333  0.83333333  0.25000000  8.680556e-04
  0.33333333  0.83333333  0.37500000  8.680556e-04
  0.33333333  0.83333333  0.50000000  8.680556e-04
  0.33333333  0.83333333  0.62500000  8.680556e-04
  0.33333333  0.83333333  0.75000000  8.680556e-04
  0.33333333  0.83333333  0.87500000  8.680556e-04
  0.33333333  0.91666667  0.00000000  8.680556e-04
  0.33333333  0.91666667  0.12500000  8.680556e-04
  0.33333333  0.91666667  0.25000000  8.680556e-04
  0.33333333  0.91666667  0.37500000  8.680556e-04
  0.33333333  0.91666667  0.50000000  8.680556e-04
  0.33333333  0.91666667  0.62500000  8.680556e-04
  0.33333333  0.91666667  0.75000000  8.680556e-04
  0.33333333  0.91666667  0.87500000  8.680556e-04
  0.41666667  0.00000000  0.00000000  8.680556e-04
  0.41666667  0.00000000  0.12500000  8.680556e-04
  0.41666667  0.00000000  0.25000000  8.680556e-04
  0.41666667  0.00000000  0.37500000  8.680556e-04
  0.41666667  0.00000000  0.50000000  8.680556e-04
  0.41666667  0.00000000  0.62500000  8.680556e-04
  0.41666667  0.00000000  0.75000000  8.680556e-04
  0.41666667  0.00000000  0.87500000  8.680556e-04
  0.41666667  0.08333333  0.00000000  8.680556e-04
  0.41666667  0.08333333  0.12500000  8.680556e-04
  0.41666667  0.08333333  0.25000000  8.680556e-04
  0.41666667  0.08333333  0.37500000  8.680556e-04
  0.41666667  0.08333333  0.50000000  8.680556e-04
  0.41666667  0.08333333  0.62500000  8.680556e-04
  0.41666667  0.08333333  0.75000000  8.680556e-04
  0.41666667  0.08333333  0.87500000  8.680556e-04
  0.41666667  0.16666667  0.00000000  8.680556e-04
  0.41666667  0.16666667  0.12500000  8.680556e-04
  0.41666667  0.16666667  0.25000000  8.680556e-04
  0.41666667  0.16666667  0.37500000  8.680556e-04
  0.41666667  0.16666667  0.50000000  8.680556e-04
  0.41666667  0.16666667  0.62500000  8.680556e-04
  0.41666667  0.16666667  0.75000000  8.680556e-04
  0.41666667  0.16666667  0.87500000  8.680556e-04
  0.41666667  0.25000000  0.00000000  8.680556e-04
  0.41666667  0.25000000  0.12500000  8.680556e-04
  0.41666667  0.25000000  0.25000000  8.680556e-04
  0.41666667  0.25000000  0.37500000  8.680556e-04
  0.41666667  0.25000000  0.50000000  8.680556e-04
  0.41666667  0.25000000  0.62500000  8.680556e-04
  0.41666667  0.25000000  0.75000000  8.680556e-04
  0.41666667  0.25000000  0.87500000  8.680556e-04
  0.41666667  0.33333333  0.00000000  8.680556e-04
  0.41666667  0.33333333  0.12500000  8.680556e-04
  0.41666667  0.33333333  0.25000000  8.680556e-04
  0.41666667  0.33333333  0.37500000  8.680556e-04
  0.41666667  0.33333333  0.50000000  8.680556e-04
  0.41666667  0.33333333  0.62500000  8.680556e-04
  0.41666667  0.33333333  0.75000000  8.680556e-04
  0.41666667  0.33333333  0.87500000  8.680556e-04
  0.41666667  0.41666667  0.00000000  8.680556e-04
  0.41666667  0.41666667  0.12500000  8.680556e-04
  0.41666667  0.41666667  0.25000000  8.680556e-04
  0.41666667  0.41666667  0.37500000  8.680556e-04
  0.41666667  0.41666667  0.50000000  8.680556e-04
  0.41666667  0.41666667  0.62500000  8.680556e-04
  0.41666667  0.41666667  0.75000000  8.680556e-04
  0.41666667  0.41666667  0.87500000  8.680556e-04
  0.41666667  0.50000000  0.00000000  8.680556e-04
  0.41666667  0.50000000  0.12500000  8.680556e-04
  0.41666667  0.50000000  0.25000000  8.680556e-04
  0.41666667  0.50000000  0.37500000  8.680556e-04
  0.41666667  0.50000000  0.50000000  8.680556e-04
  0.41666667  0.50000000  0.62500000  8.680556e-04
  0.41666667  0.50000000  0.75000000  8.680556e-04
  0.41666667  0.50000000  0.87500000  8.680556e-04
  0.41666667  0.58333333  0.00000000  8.680556e-04
  0.41666667  0.58333333  0.12500000  8.680556e-04
  0.41666667  0.58333333  0.25000000  8.680556e-04
  0.41666667  0.58333333  0.37500000  8.680556e-04
  0.41666667  0.58333333  0.50000000  8.680556e-04
  0.41666667  0.58333333  0.62500000  8.680556e-04
  0.41666667  0.58333333  0.75000000  8.680556e-04
  0.41666667  0.58333333  0.87500000  8.680556e-04
  0.41666667  0.66666667  0.00000000  8.680556e-04
  0.41666667  0.66666667  0.12500000  8.680556e-04
  0.41666667  0.66666667  0.25000000  8.680556e-04
  0.41666667  0.66666667  0.37500000  8.680556e-04
  0.41666667  0.66666667  0.50000000  8.680556e-04
  0.41666667  0.66666667  0.62500000  8.680556e-04
  0.41666667  0.66666667  0.75000000  8.680556e-04
  0.41666667  0.66666667  0.87500000  8.680556e-04
  0.41666667  0.75000000  0.00000000  8.680556e-04
  0.41666667  0.75000000  0.12500000  8.680556e-04
  0.41666667  0.75000000  0.25000000  8.680556e-04
  0.41666667  0.75000000  0.37500000  8.680556e-04
  0.41666667  0.75000000  0.50000000  8.680556e-04
  0.41666667  0.75000000  0.62500000  8.680556e-04
  0.41666667  0.75000000  0.75000000  8.680556e-04
  0.41666667  0.75000000  0.87500000  8.680556e-04
  0.41666667  0.83333333  0.00000000  8.680556e-04
  0.41666667  0.83333333  0.12500000  8.680556e-04
  0.41666667  0.83333333  0.25000000  8.680556e-04
  0.41666667  0.83333333  0.37500000  8.680556e-04
  0.41666667  0.83333333  0.50000000  8.680556e-04
  0.41666667  0.83333333  0.62500000  8.680556e-04
  0.41666667  0.83333333  0.75000000  8.680556e-04
  0.41666667  0.83333333  0.87500000  8.680556e-04
  0.41666667  0.91666667  0.00000000  8.680556e-04
  0.41666667  0.91666667  0.12500000  8.680556e-04