&inputpp
  prefix='SnTe'
  outdir='../scf'
  seedname='snte'
  isym=26
  sym_eig=(0.0d0,1.0d0)
  nexband=12
/
