&bands
   prefix  = 'pb'
   outdir = './work/'
   filband = 'bands.dat'
/
