&projwfc
    prefix = 'pb',
    outdir = './work/',
    lsym = .FALSE.,
    filproj = 'lead-proj'
 /
