&inputpp
   outdir = './'
   prefix = 'pb'
   seedname = 'ex4'
   write_amn = .true.
   write_mmn = .true.
/

