&bands
   prefix  = 'si'
   outdir = 'out/'
   filband = 'bands.dat'
   lsym = .false.
/
