&inputpp
    outdir='./'
    prefix='GaAs',
    seedname = 'GaAs'
	write_amn  = .true.
	write_mmn  = .true.
	write_unk  = .true.
	! SCDM keywords *fill this in for erfc function with parameters mu = 11 and sigma = 4*




/
