num_bands         =  10
num_wann          =   6

!===========  additional input for symmetry-adapted mode
site_symmetry = .true.
symmetrize_eps=  1d-9
!===========

! window is set to [-10 eV:+10 eV] with respect to Fermi level
dis_win_min =   4.689
dis_win_max =  24.689

begin projections
f= 0.250, 0.250, 0.250: s
f= 0.000, 0.000, 0.000: d
end projections

write_hr = .true.
bands_plot = .true.

wannier_plot = .true.
wannier_plot_supercell = 3

begin kpoint_path
L   0.50000     0.50000     0.50000   G   0.00000     0.00000     0.00000
G   0.00000     0.00000     0.00000   X   0.50000     0.00000     0.50000
X   0.50000     0.00000     0.50000   W   0.50000     0.25000     0.75000
W   0.50000     0.25000     0.75000   L   0.50000     0.50000     0.50000
L   0.50000     0.50000     0.50000   K   0.75000     0.37500     0.37500
K   0.75000     0.37500     0.37500   G   0.00000     0.00000     0.00000
end kpoint_path

begin unit_cell_cart
bohr
-3.411 0.000 3.411
 0.000 3.411 3.411
-3.411 3.411 0.000
end unit_cell_cart

begin atoms_frac
Cu 0.0 0.0 0.0
end atoms_frac


mp_grid = 8 8 8

begin kpoints
0.0000  0.0000   0.0000 
0.0000  0.1250   0.0000 
0.0000  0.2500   0.0000 
0.0000  0.3750   0.0000 
0.0000  0.5000   0.0000 
0.0000  0.6250   0.0000 
0.0000  0.7500   0.0000 
0.0000  0.8750   0.0000 
0.1250  0.0000   0.0000 
0.1250  0.1250   0.0000 
0.1250  0.2500   0.0000 
0.1250  0.3750   0.0000 
0.1250  0.5000   0.0000 
0.1250  0.6250   0.0000 
0.1250  0.7500   0.0000 
0.1250  0.8750   0.0000 
0.2500  0.0000   0.0000 
0.2500  0.1250   0.0000 
0.2500  0.2500   0.0000 
0.2500  0.3750   0.0000 
0.2500  0.5000   0.0000 
0.2500  0.6250   0.0000 
0.2500  0.7500   0.0000 
0.2500  0.8750   0.0000 
0.3750  0.0000   0.0000 
0.3750  0.1250   0.0000 
0.3750  0.2500   0.0000 
0.3750  0.3750   0.0000 
0.3750  0.5000   0.0000 
0.3750  0.6250   0.0000 
0.3750  0.7500   0.0000 
0.3750  0.8750   0.0000 
0.5000  0.0000   0.0000 
0.5000  0.1250   0.0000 
0.5000  0.2500   0.0000 
0.5000  0.3750   0.0000 
0.5000  0.5000   0.0000 
0.5000  0.6250   0.0000 
0.5000  0.7500   0.0000 
0.5000  0.8750   0.0000 
0.6250  0.0000   0.0000 
0.6250  0.1250   0.0000 
0.6250  0.2500   0.0000 
0.6250  0.3750   0.0000 
0.6250  0.5000   0.0000 
0.6250  0.6250   0.0000 
0.6250  0.7500   0.0000 
0.6250  0.8750   0.0000 
0.7500  0.0000   0.0000 
0.7500  0.1250   0.0000 
0.7500  0.2500   0.0000 
0.7500  0.3750   0.0000 
0.7500  0.5000   0.0000 
0.7500  0.6250   0.0000 
0.7500  0.7500   0.0000 
0.7500  0.8750   0.0000 
0.8750  0.0000   0.0000 
0.8750  0.1250   0.0000 
0.8750  0.2500   0.0000 
0.8750  0.3750   0.0000 
0.8750  0.5000   0.0000 
0.8750  0.6250   0.0000 
0.8750  0.7500   0.0000 
0.8750  0.8750   0.0000 
0.0000  0.0000   0.1250 
0.0000  0.1250   0.1250 
0.0000  0.2500   0.1250 
0.0000  0.3750   0.1250 
0.0000  0.5000   0.1250 
0.0000  0.6250   0.1250 
0.0000  0.7500   0.1250 
0.0000  0.8750   0.1250 
0.1250  0.0000   0.1250 
0.1250  0.1250   0.1250 
0.1250  0.2500   0.1250 
0.1250  0.3750   0.1250 
0.1250  0.5000   0.1250 
0.1250  0.6250   0.1250 
0.1250  0.7500   0.1250 
0.1250  0.8750   0.1250 
0.2500  0.0000   0.1250 
0.2500  0.1250   0.1250 
0.2500  0.2500   0.1250 
0.2500  0.3750   0.1250 
0.2500  0.5000   0.1250 
0.2500  0.6250   0.1250 
0.2500  0.7500   0.1250 
0.2500  0.8750   0.1250 
0.3750  0.0000   0.1250 
0.3750  0.1250   0.1250 
0.3750  0.2500   0.1250 
0.3750  0.3750   0.1250 
0.3750  0.5000   0.1250 
0.3750  0.6250   0.1250 
0.3750  0.7500   0.1250 
0.3750  0.8750   0.1250 
0.5000  0.0000   0.1250 
0.5000  0.1250   0.1250 
0.5000  0.2500   0.1250 
0.5000  0.3750   0.1250 
0.5000  0.5000   0.1250 
0.5000  0.6250   0.1250 
0.5000  0.7500   0.1250 
0.5000  0.8750   0.1250 
0.6250  0.0000   0.1250 
0.6250  0.1250   0.1250 
0.6250  0.2500   0.1250 
0.6250  0.3750   0.1250 
0.6250  0.5000   0.1250 
0.6250  0.6250   0.1250 
0.6250  0.7500   0.1250 
0.6250  0.8750   0.1250 
0.7500  0.0000   0.1250 
0.7500  0.1250   0.1250 
0.7500  0.2500   0.1250 
0.7500  0.3750   0.1250 
0.7500  0.5000   0.1250 
0.7500  0.6250   0.1250 
0.7500  0.7500   0.1250 
0.7500  0.8750   0.1250 
0.8750  0.0000   0.1250 
0.8750  0.1250   0.1250 
0.8750  0.2500   0.1250 
0.8750  0.3750   0.1250 
0.8750  0.5000   0.1250 
0.8750  0.6250   0.1250 
0.8750  0.7500   0.1250 
0.8750  0.8750   0.1250 
0.0000  0.0000   0.2500 
0.0000  0.1250   0.2500 
0.0000  0.2500   0.2500 
0.0000  0.3750   0.2500 
0.0000  0.5000   0.2500 
0.0000  0.6250   0.2500 
0.0000  0.7500   0.2500 
0.0000  0.8750   0.2500 
0.1250  0.0000   0.2500 
0.1250  0.1250   0.2500 
0.1250  0.2500   0.2500 
0.1250  0.3750   0.2500 
0.1250  0.5000   0.2500 
0.1250  0.6250   0.2500 
0.1250  0.7500   0.2500 
0.1250  0.8750   0.2500 
0.2500  0.0000   0.2500 
0.2500  0.1250   0.2500 
0.2500  0.2500   0.2500 
0.2500  0.3750   0.2500 
0.2500  0.5000   0.2500 
0.2500  0.6250   0.2500 
0.2500  0.7500   0.2500 
0.2500  0.8750   0.2500 
0.3750  0.0000   0.2500 
0.3750  0.1250   0.2500 
0.3750  0.2500   0.2500 
0.3750  0.3750   0.2500 
0.3750  0.5000   0.2500 
0.3750  0.6250   0.2500 
0.3750  0.7500   0.2500 
0.3750  0.8750   0.2500 
0.5000  0.0000   0.2500 
0.5000  0.1250   0.2500 
0.5000  0.2500   0.2500 
0.5000  0.3750   0.2500 
0.5000  0.5000   0.2500 
0.5000  0.6250   0.2500 
0.5000  0.7500   0.2500 
0.5000  0.8750   0.2500 
0.6250  0.0000   0.2500 
0.6250  0.1250   0.2500 
0.6250  0.2500   0.2500 
0.6250  0.3750   0.2500 
0.6250  0.5000   0.2500 
0.6250  0.6250   0.2500 
0.6250  0.7500   0.2500 
0.6250  0.8750   0.2500 
0.7500  0.0000   0.2500 
0.7500  0.1250   0.2500 
0.7500  0.2500   0.2500 
0.7500  0.3750   0.2500 
0.7500  0.5000   0.2500 
0.7500  0.6250   0.2500 
0.7500  0.7500   0.2500 
0.7500  0.8750   0.2500 
0.8750  0.0000   0.2500 
0.8750  0.1250   0.2500 
0.8750  0.2500   0.2500 
0.8750  0.3750   0.2500 
0.8750  0.5000   0.2500 
0.8750  0.6250   0.2500 
0.8750  0.7500   0.2500 
0.8750  0.8750   0.2500 
0.0000  0.0000   0.3750 
0.0000  0.1250   0.3750 
0.0000  0.2500   0.3750 
0.0000  0.3750   0.3750 
0.0000  0.5000   0.3750 
0.0000  0.6250   0.3750 
0.0000  0.7500   0.3750 
0.0000  0.8750   0.3750 
0.1250  0.0000   0.3750 
0.1250  0.1250   0.3750 
0.1250  0.2500   0.3750 
0.1250  0.3750   0.3750 
0.1250  0.5000   0.3750 
0.1250  0.6250   0.3750 
0.1250  0.7500   0.3750 
0.1250  0.8750   0.3750 
0.2500  0.0000   0.3750 
0.2500  0.1250   0.3750 
0.2500  0.2500   0.3750 
0.2500  0.3750   0.3750 
0.2500  0.5000   0.3750 
0.2500  0.6250   0.3750 
0.2500  0.7500   0.3750 
0.2500  0.8750   0.3750 
0.3750  0.0000   0.3750 
0.3750  0.1250   0.3750 
0.3750  0.2500   0.3750 
0.3750  0.3750   0.3750 
0.3750  0.5000   0.3750 
0.3750  0.6250   0.3750 
0.3750  0.7500   0.3750 
0.3750  0.8750   0.3750 
0.5000  0.0000   0.3750 
0.5000  0.1250   0.3750 
0.5000  0.2500   0.3750 
0.5000  0.3750   0.3750 
0.5000  0.5000   0.3750 
0.5000  0.6250   0.3750 
0.5000  0.7500   0.3750 
0.5000  0.8750   0.3750 
0.6250  0.0000   0.3750 
0.6250  0.1250   0.3750 
0.6250  0.2500   0.3750 
0.6250  0.3750   0.3750 
0.6250  0.5000   0.3750 
0.6250  0.6250   0.3750 
0.6250  0.7500   0.3750 
0.6250  0.8750   0.3750 
0.7500  0.0000   0.3750 
0.7500  0.1250   0.3750 
0.7500  0.2500   0.3750 
0.7500  0.3750   0.3750 
0.7500  0.5000   0.3750 
0.7500  0.6250   0.3750 
0.7500  0.7500   0.3750 
0.7500  0.8750   0.3750 
0.8750  0.0000   0.3750 
0.8750  0.1250   0.3750 
0.8750  0.2500   0.3750 
0.8750  0.3750   0.3750 
0.8750  0.5000   0.3750 
0.8750  0.6250   0.3750 
0.8750  0.7500   0.3750 
0.8750  0.8750   0.3750 
0.0000  0.0000   0.5000 
0.0000  0.1250   0.5000 
0.0000  0.2500   0.5000 
0.0000  0.3750   0.5000 
0.0000  0.5000   0.5000 
0.0000  0.6250   0.5000 
0.0000  0.7500   0.5000 
0.0000  0.8750   0.5000 
0.1250  0.0000   0.5000 
0.1250  0.1250   0.5000 
0.1250  0.2500   0.5000 
0.1250  0.3750   0.5000 
0.1250  0.5000   0.5000 
0.1250  0.6250   0.5000 
0.1250  0.7500   0.5000 
0.1250  0.8750   0.5000 
0.2500  0.0000   0.5000 
0.2500  0.1250   0.5000 
0.2500  0.2500   0.5000 
0.2500  0.3750   0.5000 
0.2500  0.5000   0.5000 
0.2500  0.6250   0.5000 
0.2500  0.7500   0.5000 
0.2500  0.8750   0.5000 
0.3750  0.0000   0.5000 
0.3750  0.1250   0.5000 
0.3750  0.2500   0.5000 
0.3750  0.3750   0.5000 
0.3750  0.5000   0.5000 
0.3750  0.6250   0.5000 
0.3750  0.7500   0.5000 
0.3750  0.8750   0.5000 
0.5000  0.0000   0.5000 
0.5000  0.1250   0.5000 
0.5000  0.2500   0.5000 
0.5000  0.3750   0.5000 
0.5000  0.5000   0.5000 
0.5000  0.6250   0.5000 
0.5000  0.7500   0.5000 
0.5000  0.8750   0.5000 
0.6250  0.0000   0.5000 
0.6250  0.1250   0.5000 
0.6250  0.2500   0.5000 
0.6250  0.3750   0.5000 
0.6250  0.5000   0.5000 
0.6250  0.6250   0.5000 
0.6250  0.7500   0.5000 
0.6250  0.8750   0.5000 
0.7500  0.0000   0.5000 
0.7500  0.1250   0.5000 
0.7500  0.2500   0.5000 
0.7500  0.3750   0.5000 
0.7500  0.5000   0.5000 
0.7500  0.6250   0.5000 
0.7500  0.7500   0.5000 
0.7500  0.8750   0.5000 
0.8750  0.0000   0.5000 
0.8750  0.1250   0.5000 
0.8750  0.2500   0.5000 
0.8750  0.3750   0.5000 
0.8750  0.5000   0.5000 
0.8750  0.6250   0.5000 
0.8750  0.7500   0.5000 
0.8750  0.8750   0.5000 
0.0000  0.0000   0.6250 
0.0000  0.1250   0.6250 
0.0000  0.2500   0.6250 
0.0000  0.3750   0.6250 
0.0000  0.5000   0.6250 
0.0000  0.6250   0.6250 
0.0000  0.7500   0.6250 
0.0000  0.8750   0.6250 
0.1250  0.0000   0.6250 
0.1250  0.1250   0.6250 
0.1250  0.2500   0.6250 
0.1250  0.3750   0.6250 
0.1250  0.5000   0.6250 
0.1250  0.6250   0.6250 
0.1250  0.7500   0.6250 
0.1250  0.8750   0.6250 
0.2500  0.0000   0.6250 
0.2500  0.1250   0.6250 
0.2500  0.2500   0.6250 
0.2500  0.3750   0.6250 
0.2500  0.5000   0.6250 
0.2500  0.6250   0.6250 
0.2500  0.7500   0.6250 
0.2500  0.8750   0.6250 
0.3750  0.0000   0.6250 
0.3750  0.1250   0.6250 
0.3750  0.2500   0.6250 
0.3750  0.3750   0.6250 
0.3750  0.5000   0.6250 
0.3750  0.6250   0.6250 
0.3750  0.7500   0.6250 
0.3750  0.8750   0.6250 
0.5000  0.0000   0.6250 
0.5000  0.1250   0.6250 
0.5000  0.2500   0.6250 
0.5000  0.3750   0.6250 
0.5000  0.5000   0.6250 
0.5000  0.6250   0.6250 
0.5000  0.7500   0.6250 
0.5000  0.8750   0.6250 
0.6250  0.0000   0.6250 
0.6250  0.1250   0.6250 
0.6250  0.2500   0.6250 
0.6250  0.3750   0.6250 
0.6250  0.5000   0.6250 
0.6250  0.6250   0.6250 
0.6250  0.7500   0.6250 
0.6250  0.8750   0.6250 
0.7500  0.0000   0.6250 
0.7500  0.1250   0.6250 
0.7500  0.2500   0.6250 
0.7500  0.3750   0.6250 
0.7500  0.5000   0.6250 
0.7500  0.6250   0.6250 
0.7500  0.7500   0.6250 
0.7500  0.8750   0.6250 
0.8750  0.0000   0.6250 
0.8750  0.1250   0.6250 
0.8750  0.2500   0.6250 
0.8750  0.3750   0.6250 
0.8750  0.5000   0.6250 
0.8750  0.6250   0.6250 
0.8750  0.7500   0.6250 
0.8750  0.8750   0.6250 
0.0000  0.0000   0.7500 
0.0000  0.1250   0.7500 
0.0000  0.2500   0.7500 
0.0000  0.3750   0.7500 
0.0000  0.5000   0.7500 
0.0000  0.6250   0.7500 
0.0000  0.7500   0.7500 
0.0000  0.8750   0.7500 
0.1250  0.0000   0.7500 
0.1250  0.1250   0.7500 
0.1250  0.2500   0.7500 
0.1250  0.3750   0.7500 
0.1250  0.5000   0.7500 
0.1250  0.6250   0.7500 
0.1250  0.7500   0.7500 
0.1250  0.8750   0.7500 
0.2500  0.0000   0.7500 
0.2500  0.1250   0.7500 
0.2500  0.2500   0.7500 
0.2500  0.3750   0.7500 
0.2500  0.5000   0.7500 
0.2500  0.6250   0.7500 
0.2500  0.7500   0.7500 
0.2500  0.8750   0.7500 
0.3750  0.0000   0.7500 
0.3750  0.1250   0.7500 
0.3750  0.2500   0.7500 
0.3750  0.3750   0.7500 
0.3750  0.5000   0.7500 
0.3750  0.6250   0.7500 
0.3750  0.7500   0.7500 
0.3750  0.8750   0.7500 
0.5000  0.0000   0.7500 
0.5000  0.1250   0.7500 
0.5000  0.2500   0.7500 
0.5000  0.3750   0.7500 
0.5000  0.5000   0.7500 
0.5000  0.6250   0.7500 
0.5000  0.7500   0.7500 
0.5000  0.8750   0.7500 
0.6250  0.0000   0.7500 
0.6250  0.1250   0.7500 
0.6250  0.2500   0.7500 
0.6250  0.3750   0.7500 
0.6250  0.5000   0.7500 
0.6250  0.6250   0.7500 
0.6250  0.7500   0.7500 
0.6250  0.8750   0.7500 
0.7500  0.0000   0.7500 
0.7500  0.1250   0.7500 
0.7500  0.2500   0.7500 
0.7500  0.3750   0.7500 
0.7500  0.5000   0.7500 
0.7500  0.6250   0.7500 
0.7500  0.7500   0.7500 
0.7500  0.8750   0.7500 
0.8750  0.0000   0.7500 
0.8750  0.1250   0.7500 
0.8750  0.2500   0.7500 
0.8750  0.3750   0.7500 
0.8750  0.5000   0.7500 
0.8750  0.6250   0.7500 
0.8750  0.7500   0.7500 
0.8750  0.8750   0.7500 
0.0000  0.0000   0.8750 
0.0000  0.1250   0.8750 
0.0000  0.2500   0.8750 
0.0000  0.3750   0.8750 
0.0000  0.5000   0.8750 
0.0000  0.6250   0.8750 
0.0000  0.7500   0.8750 
0.0000  0.8750   0.8750 
0.1250  0.0000   0.8750 
0.1250  0.1250   0.8750 
0.1250  0.2500   0.8750 
0.1250  0.3750   0.8750 
0.1250  0.5000   0.8750 
0.1250  0.6250   0.8750 
0.1250  0.7500   0.8750 
0.1250  0.8750   0.8750 
0.2500  0.0000   0.8750 
0.2500  0.1250   0.8750 
0.2500  0.2500   0.8750 
0.2500  0.3750   0.8750 
0.2500  0.5000   0.8750 
0.2500  0.6250   0.8750 
0.2500  0.7500   0.8750 
0.2500  0.8750   0.8750 
0.3750  0.0000   0.8750 
0.3750  0.1250   0.8750 
0.3750  0.2500   0.8750 
0.3750  0.3750   0.8750 
0.3750  0.5000   0.8750 
0.3750  0.6250   0.8750 
0.3750  0.7500   0.8750 
0.3750  0.8750   0.8750 
0.5000  0.0000   0.8750 
0.5000  0.1250   0.8750 
0.5000  0.2500   0.8750 
0.5000  0.3750   0.8750 
0.5000  0.5000   0.8750 
0.5000  0.6250   0.8750 
0.5000  0.7500   0.8750 
0.5000  0.8750   0.8750 
0.6250  0.0000   0.8750 
0.6250  0.1250   0.8750 
0.6250  0.2500   0.8750 
0.6250  0.3750   0.8750 
0.6250  0.5000   0.8750 
0.6250  0.6250   0.8750 
0.6250  0.7500   0.8750 
0.6250  0.8750   0.8750 
0.7500  0.0000   0.8750 
0.7500  0.1250   0.8750 
0.7500  0.2500   0.8750 
0.7500  0.3750   0.8750 
0.7500  0.5000   0.8750 
0.7500  0.6250   0.8750 
0.7500  0.7500   0.8750 
0.7500  0.8750   0.8750 
0.8750  0.0000   0.8750 
0.8750  0.1250   0.8750 
0.8750  0.2500   0.8750 
0.8750  0.3750   0.8750 
0.8750  0.5000   0.8750 
0.8750  0.6250   0.8750 
0.8750  0.7500   0.8750 
0.8750  0.8750   0.8750 
end kpoints
