&bands
prefix = 'GaAs',
outdir = './work/',
filband = 'bands.dat'
/ 
