&bands
prefix = 'si',
outdir = './work/',
filband = 'bands.dat'
/ 
