&projwfc
prefix = 'si',
outdir = './work/',
lsym = .FALSE.,
filproj = 'si-proj'
/
