&inputpp
    outdir='../work/'
    prefix='H3S',
    seedname = 'H3S'
    write_unk = .false.
    write_dmn = .true. ! additional input for symmetry-adapted mode
/
