&projwfc
prefix = 'GaAs',
outdir = './work/',
lsym = .FALSE.,
filproj = 'GaAs-proj'
/
