--
&inputph
  prefix   = 'mgb2',
  fildyn   = 'mgb2.dyn',
  amass(1) = 24.305,
  amass(2) = 10.811,
  outdir   = './'
  ldisp    = .true.,
  fildvscf = 'dvscf',
  nq1=3,
  nq2=3,
  nq3=3,
  tr2_ph   =  1.0d-12
 /
