num_bands         =   4
num_wann          =   1
num_iter          =   500
num_print_cycles  =   50

exclude_bands= 1-5, 10-13

!===========  additional input for symmetry-adapted mode
site_symmetry = .true.
symmetrize_eps=  1d-9
!===========

begin projections
f=0.00,0.00,0.00 : s
end projections

write_hr = .true.
bands_plot = .true.

wannier_plot = .true.
wannier_plot_supercell = 2

begin kpoint_path
L   0.50000     0.50000     0.50000   G   0.00000     0.00000     0.00000
G   0.00000     0.00000     0.00000   X   0.50000     0.00000     0.50000
X   0.50000     0.00000     0.50000   W   0.50000     0.25000     0.75000
W   0.50000     0.25000     0.75000   L   0.50000     0.50000     0.50000
L   0.50000     0.50000     0.50000   K   0.75000     0.37500     0.37500
K   0.75000     0.37500     0.37500   G   0.00000     0.00000     0.00000
end kpoint_path

begin unit_cell_cart
bohr
-5.34 0.00 5.34
 0.00 5.34 5.34
-5.34 5.34 0.00
end unit_cell_cart

begin atoms_frac
Ga 0.00  0.00  0.00
As 0.25  0.25  0.25
end atoms_frac


mp_grid = 4 4 4

begin kpoints
0.00000   0.00000   0.00000
0.25000   0.00000   0.00000
0.50000   0.00000   0.00000
0.75000   0.00000   0.00000
0.00000   0.25000   0.00000
0.25000   0.25000   0.00000
0.50000   0.25000   0.00000
0.75000   0.25000   0.00000
0.00000   0.50000   0.00000
0.25000   0.50000   0.00000
0.50000   0.50000   0.00000
0.75000   0.50000   0.00000
0.00000   0.75000   0.00000
0.25000   0.75000   0.00000
0.50000   0.75000   0.00000
0.75000   0.75000   0.00000
0.00000   0.00000   0.25000
0.25000   0.00000   0.25000
0.50000   0.00000   0.25000
0.75000   0.00000   0.25000
0.00000   0.25000   0.25000
0.25000   0.25000   0.25000
0.50000   0.25000   0.25000
0.75000   0.25000   0.25000
0.00000   0.50000   0.25000
0.25000   0.50000   0.25000
0.50000   0.50000   0.25000
0.75000   0.50000   0.25000
0.00000   0.75000   0.25000
0.25000   0.75000   0.25000
0.50000   0.75000   0.25000
0.75000   0.75000   0.25000
0.00000   0.00000   0.50000
0.25000   0.00000   0.50000
0.50000   0.00000   0.50000
0.75000   0.00000   0.50000
0.00000   0.25000   0.50000
0.25000   0.25000   0.50000
0.50000   0.25000   0.50000
0.75000   0.25000   0.50000
0.00000   0.50000   0.50000
0.25000   0.50000   0.50000
0.50000   0.50000   0.50000
0.75000   0.50000   0.50000
0.00000   0.75000   0.50000
0.25000   0.75000   0.50000
0.50000   0.75000   0.50000
0.75000   0.75000   0.50000
0.00000   0.00000   0.75000
0.25000   0.00000   0.75000
0.50000   0.00000   0.75000
0.75000   0.00000   0.75000
0.00000   0.25000   0.75000
0.25000   0.25000   0.75000
0.50000   0.25000   0.75000
0.75000   0.25000   0.75000
0.00000   0.50000   0.75000
0.25000   0.50000   0.75000
0.50000   0.50000   0.75000
0.75000   0.50000   0.75000
0.00000   0.75000   0.75000
0.25000   0.75000   0.75000
0.50000   0.75000   0.75000
0.75000   0.75000   0.75000
end kpoints
