&BANDS
   prefix  = 'lco',
   outdir  = '../tmp/',
   filband = 'lco_bands.dat'
!   lsym    = .false., 
/
